10
Lattice="5.4188151359558105 0.0 2.478177785873413 2.6890873545235214 6.514853248944045 1.2752556800842285 0.0 0.0 7.1680097579956055" Properties=species:S:1:pos:R:3 pbc="T T T"
Nd       3.80994076       0.74976018       4.82569527
Nd       3.30494556       4.36058168       5.91867540
Nd       5.78356940       1.93278921       8.38221740
As       6.06740547       4.52149458       7.03651627
S        7.66789391       5.87385035       3.55115619
Nd       1.79743783       3.16003942       2.05988976
N        2.53258821       1.91723989       6.88515747
As       4.43837274       3.31666027       3.43655978
Nd       5.01489291       6.05132956       9.36629386
As       1.17576955       0.59289745       3.40848028
16
Lattice="4.540097713470459 0.0 0.00010425735672470182 -0.0017695445987037852 6.118534309086456 -0.1641186624765396 0.0 0.0 15.091330528259277" Properties=species:S:1:pos:R:3 pbc="T T T"
La       4.00561704       2.19431659      10.74117802
La       1.73675711       5.32655628      12.38531376
La       4.00866166       3.75792680       3.04683645
La       1.73775314       3.92567321       8.10381250
Au       1.73935305       5.30606125       4.85671471
La       1.73753170       0.55464171       1.75512098
La       4.00662413       2.34070822      14.20421345
Ni       1.73505482       2.26642808      12.46133700
La       4.00739864       0.73407635       6.80421067
Au       1.73930399       0.85622537       9.02758214
Au       4.00522448       5.43802362      14.76560700
Au       4.00763097       3.78298303       6.13685639
Au       4.01056084       0.72058080       3.72623573
Au       1.73903757       2.24898244       4.95126713
Au       1.73635599       3.64117360       0.83277258
Au       4.00579993       5.20832096       9.99953947
5
Lattice="4.427810192108154 0.0 -1.847294807434082 -0.762648203102842 4.3641224253441635 -1.8494940996170044 0.0 0.0 6.206775665283203" Properties=species:S:1:pos:R:3 pbc="T T T"
Rb       0.03304055       3.20338147       3.17451728
Ga       3.16298352       4.29540080      -1.77581715
Ge       2.16402448       0.46782159       2.06927597
Ge       3.09351334       1.57395250      -1.92805264
Ga       1.32894402       2.11133379       0.07196976
10
Lattice="4.41583251953125 0.0 0.012030897662043571 0.03430619301786457 8.800090677776572 -0.9252853393554688 0.0 0.0 8.681509017944336" Properties=species:S:1:pos:R:3 pbc="T T T"
Ba       2.90481889       8.63813060       0.62202791
Ce       0.68274967       4.73460184       2.73367546
Se       2.89400172       5.24733572       0.92344593
Ce       2.90462149       7.59143002       5.25551004
Ba       0.68371377       3.69282315       7.36773606
Se       0.69287764       7.08461909       7.06478254
Se       0.67246830       2.17674603       1.82377756
Se       0.69607829       7.67597946       3.24169907
Se       2.89093293       4.65445265       4.74566183
Se       2.87930023       1.35281451       7.08649510
6
Lattice="3.976858139038086 0.0 -1.865885853767395 -0.006548916550103915 4.425339144563479 -0.00818607397377491 0.0 0.0 5.169281959533691" Properties=species:S:1:pos:R:3 pbc="T T T"
W        3.04005888       0.52866780       3.55993413
V        1.71245578       0.52947718       0.72796575
V        1.04474482       2.74090219       4.48079020
Mo       2.36664015       2.74088003       2.12400791
W        0.39110517       0.52991837       3.08402215
W        3.69987191       2.74155977      -0.20226828
10
Lattice="4.7903032302856445 0.0 -2.427349328994751 -3.081675327939024 4.5186008442770635 -0.1276194304227829 0.0 0.0 5.735136032104492" Properties=species:S:1:pos:R:3 pbc="T T T"
O        3.77594474       1.12693012       2.18824856
Fe       2.47039270       2.52462509       1.32115017
O        1.31817735       0.58984030       0.87922975
Y        1.12319712       1.64399123       4.47419405
O       -1.50826406       2.24724913       1.74428906
O        0.66235095       3.52023265       0.09209961
O       -1.10222782       4.30824150       3.47606743
Fe       4.06048343       0.35148991      -1.43879574
W       -0.36974155       3.95176627       1.66919092
O        1.13411871       3.04702944       2.76785987
8
Lattice="4.872420310974121 0.0 0.003262353129684925 0.007881760913462687 5.282076200376816 -3.0472583770751953 0.0 0.0 6.101752758026123" Properties=species:S:1:pos:R:3 pbc="T T T"
Ag       0.65321677       0.90430061       3.82708845
Ag       3.09340697       4.36382189      -2.27429317
Ag       0.65671154       3.47409016      -0.79140914
Sb       3.09443929       4.37600542       0.77941799
Ag       0.65772757       3.47326309       2.34537805
Ag       3.09236229       1.74487160      -0.76338696
In       0.65305412       0.85757781       0.77601971
Ag       3.09012733       1.74241304       2.31864871
7
Lattice="4.113318920135498 0.0 -1.6466327905654907 -0.7610970419355503 4.041927020567309 -1.661190152168274 0.0 0.0 5.8161211013793945" Properties=species:S:1:pos:R:3 pbc="T T T"
Cu       1.51024435       0.98312273       2.24661931
Sn      -0.17404965       3.90899542       3.25469232
Cu       2.90518124       2.65253075      -0.94122979
O        1.78892260       1.31862780       4.13643072
O       -0.24359363       3.82858362      -0.59045109
O        0.23793875       2.32176796       2.08666886
O        2.30203220       4.01843755       0.43473603
8
Lattice="5.022375583648682 0.0 -0.005082703195512295 -0.0029768760565178657 8.219438013781222 -2.8949739933013916 0.0 0.0 8.691146850585938" Properties=species:S:1:pos:R:3 pbc="T T T"
Cs       1.59256606       0.33761478       8.11944808
Cs       4.10339238       0.33886352       3.77114095
Rb       1.59351807       4.44254195       2.32831640
K        4.10176596       4.44522669       6.67136628
Br       1.59334669       2.57577199       5.27076062
Br       4.10350426       2.54680395       0.82785047
Br       4.10328639       6.34711755       3.82323802
Br       1.59209661       6.31995461      -0.61615028
7
Lattice="4.177574634552002 0.0 -0.0003393244987819344 0.006889213280717486 4.071200263936043 -1.0221987962722778 0.0 0.0 8.643402099609375" Properties=species:S:1:pos:R:3 pbc="T T T"
Li       2.68073525       2.99840828       5.88854053
Ca       2.67568354       0.22748534       3.46792115
Li       0.59224526       3.54640390      -0.55634418
Li       2.67812042       1.53027828       0.03281968
Zn       0.59106721       2.58157243       4.22724750
Li       0.58886388       0.98208525       6.48411895
Zn       0.58922240       1.94559226       1.68862310
20
Lattice="6.328741073608398 0.0 0.011922228150069714 -3.136535093152276 5.509627037427969 0.0008129318011924624 0.0 0.0 11.95528793334961" Properties=species:S:1:pos:R:3 pbc="T T T"
Al       1.53917915       5.33525387       1.08206094
Al      -1.63978709       3.49863939       7.10955565
Ba       1.52970221       1.65535544       5.69432217
Pd       2.90573568       0.86172042       2.67382267
Ba      -1.63866576       3.50062916       2.00224866
Pd      -0.26259617       4.28354014       5.09049979
Ba       1.51263489       1.67092600      11.69684092
Pd      -1.62893976       5.47043520       8.81796649
Pd       2.99014478       2.51219519       8.82067615
Pd       4.69314420       1.91966898       5.09750642
B       -1.64688191       3.50388360       9.86587013
Ba       1.53077956       5.33436260       7.91994556
Pd       2.98811356       4.49338240      10.95889820
Pd       0.04625467       2.51646734       8.81783417
Cu       1.54300382       5.33398691       3.91442389
Pd       0.06910075       4.49465955      10.95572390
Pd       0.13219335       0.86323253       2.67237246
Pd       4.67449294       1.52433920      10.96777571
Pd       1.52897268       3.26855032       2.68648267
Pd       3.33391414       4.28683595       5.10252082
8
Lattice="3.8784873485565186 0.0 0.002606569789350033 0.005023868577239581 6.34563342541336 -2.2090468406677246 0.0 0.0 6.725259780883789" Properties=species:S:1:pos:R:3 pbc="T T T"
Hf       0.97948724       0.46454000       2.45268375
Hf       2.92106490       3.63888022       1.34846553
As       2.92080256       2.07383690       3.54776807
As       2.92282674       5.20171393      -0.85318606
As       0.98215832       2.10112198       0.25479293
Tm       2.91931850       0.46503662       5.81592132
Hf       0.98097455       3.63815667       4.71101893
As       0.98262913       5.17661577       2.44216804
4
Lattice="4.15976095199585 0.0 1.159294605255127 1.9140833858545248 3.700404847388644 1.159299612045288 0.0 0.0 8.037751197814941" Properties=species:S:1:pos:R:3 pbc="T T T"
Nd       5.49533000       3.51243389       8.25246687
Dy       0.49817205       0.46826325       2.06572303
Te       4.03378548       2.62285209       5.46360744
Sb       2.96839110       1.97346775       1.24161377
12
Lattice="4.660794734954834 0.0 -0.2381632924079895 -0.9753622854891696 5.876987824858537 -3.5997021198272705 0.0 0.0 9.276535034179688" Properties=species:S:1:pos:R:3 pbc="T T T"
Rb       2.19062453       5.54432559       4.00980752
Ag       0.35168005       2.59320054       5.94103806
Rb       2.19504778       5.53154015      -0.59867615
F        1.84130828       3.80147872       6.36628510
Ag       0.34864091       2.59729252       1.30947153
F        0.84605761       1.37990892       7.39015056
F        3.51869602       1.38187662       5.28433151
F       -0.14826523       3.81029357      -0.14338190
F        3.51071208       1.38084614       0.64432847
F       -0.14151886       3.81327949       4.48988761
F        0.84545502       1.37984464       2.77239648
F        1.84158318       3.80847973       1.73188627
3
Lattice="3.8371148109436035 0.0 -0.0002851402387022972 -0.0011477074988061786 3.491762687890633 -2.0130579471588135 0.0 0.0 4.028654098510742" Properties=species:S:1:pos:R:3 pbc="T T T"
Er       2.57534669       1.80158691      -0.13737223
As       0.65718829       0.63691339       1.87503263
Ni       0.65508830       2.96557412       1.87782370
16
Lattice="5.749843597412109 0.0 4.030339241027832 1.8193952425369269 5.6326344514405235 2.9117021560668945 0.0 0.0 7.990540027618408" Properties=species:S:1:pos:R:3 pbc="T T T"
Li       3.72441812       2.61780307       4.53939922
Pd       1.59425269       4.45754781       4.67616093
Tb       2.89774984       4.59621083       9.91604455
Li       4.06002882       5.45265300       4.96300155
Li       3.97650487       0.95190767       6.95573142
Pd       5.86128581       3.71966104       6.00271367
Li       5.80096852       1.23485468       4.89941031
Li       0.29556485       0.36922179       4.22712442
Pb       5.94117723       3.91161064      11.23457055
Pd       4.89164681       5.62038597       7.64639303
Pd       2.43752653       2.03795219       8.63980116
Pd       5.06113118       2.95138691       8.59210023
Li       3.26077962       3.65236709       6.81626476
Pd       1.78892353       2.04070267       3.26490773
Pd       4.48847900       0.96194360      10.44261187
Pd       1.48888643       1.72820644       6.06371583
6
Lattice="3.275618553161621 0.0 -0.002084157196804881 -0.0012422308047297997 4.682663275933012 -1.570786952972412 0.0 0.0 7.831540107727051" Properties=species:S:1:pos:R:3 pbc="T T T"
Sc       1.10685539       0.96443103       6.01345590
Sc       1.10592847       2.60051624       3.10853115
Sc       1.10570073       4.00880330      -0.47813688
Hg       2.74559952       0.12600170       3.48875459
Hg       2.74455201       1.79975261       0.70444095
Si       2.74340394       3.30426539       5.23026497
16
Lattice="7.734269618988037 0.0 3.522686004638672 0.5754206048954702 7.8625283530704895 0.8393741846084595 0.0 0.0 9.238500595092773" Properties=species:S:1:pos:R:3 pbc="T T T"
Cl       2.12281439       2.24921419       4.20030831
Cl       7.38170900       0.54677640      11.53983287
Cl       5.26537875       5.59731750       6.56179783
Cl       5.07488139       1.78649650       7.87827651
Pb       2.66794380       1.91830158       1.50589333
Pb       7.36928550       3.71441265       7.56244644
Cl       5.08498118       5.79618343      11.45330076
Cl       4.79620224       0.03134842       2.50093068
Cl       5.53541243       7.69754860       7.67775161
Cl       0.65377799       4.77175047       6.90295335
Cl       7.91529647       3.36309919       4.88329626
Cl       1.68083201       7.61898526       3.75113955
Cl       1.21352230       5.88740624       2.63538211
Cl       2.65413325       5.08477695       6.74469273
Cl       4.93784385       3.84643929      10.41304562
Cl       1.64855714       0.88012976       7.87381017
11
Lattice="3.953152894973755 0.0 -1.1172099113464355 -0.9989654747513592 6.544905303091353 -3.523500442504883 0.0 0.0 7.612905025482178" Properties=species:S:1:pos:R:3 pbc="T T T"
Ce       1.90273795       1.03440464       2.10107039
Ce      -0.04090360       4.56427479       2.79939475
Pd       2.45606445       5.79277597      -3.51152930
Pd       0.91546355       4.49134472      -1.39018871
Pd       3.27634357       2.35371009      -0.59163242
Pd       2.68475670       0.21073050       4.89041314
S        1.48598844       3.45165209       0.62463875
Pd      -0.74710338       6.01666955       0.29900241
Pd       0.48996950       2.11585322       4.67064784
S        2.41322599       3.39876259       3.93509112
Pd       1.15319367       0.75795022      -0.57045564
9
Lattice="4.035233497619629 0.0 0.0023963518906384706 -2.0129764245764648 4.913728130880485 -1.5248395204544067 0.0 0.0 7.769931316375732" Properties=species:S:1:pos:R:3 pbc="T T T"
Tm       2.26862119       0.66510461       6.82000024
Tm       0.25199917       3.26240461       3.01746717
Fe       0.25360633       2.59347227       5.80652981
Si       0.25216535       2.26443787       0.30887662
Tm      -1.76230820       4.42133158       0.26895865
Si       0.25262462       0.54902315       4.64313723
Fe       2.26963471       1.33666080       4.03532134
Si       2.27030253       3.37960768       5.19584366
Si       2.26811855       1.66642696       1.75961136
10
Lattice="3.105526924133301 0.0 0.004678182303905487 -1.5565897922285215 6.60044581966775 -0.01801837794482708 0.0 0.0 10.738808631896973" Properties=species:S:1:pos:R:3 pbc="T T T"
Mg       1.56449911       1.35151565       6.50529029
Mg       1.56091702       0.23039528       1.13136396
Ag       0.01003446       3.51861865       7.43999435
Na       0.00808918       3.82982309       4.53309216
Mg       0.00813963       1.22766082       9.28824816
Na       1.55766022       4.35129959       9.90215514
Zn       1.55996664       5.67014548       6.91410600
Zn       0.00935782       2.51327594       1.58127554
Mg       0.01142917       0.36224408       3.92449565
Ag       1.55834260       4.67779733       2.07606465
7
Lattice="5.085410118103027 0.0 -0.0054599144496023655 2.1402655741074016e-05 5.090611457779715 0.0003590315754991025 0.0 0.0 7.42507266998291" Properties=species:S:1:pos:R:3 pbc="T T T"
Ca       2.02817498       0.21251222       3.58543528
Cd       2.02980997       0.21055403       7.29905977
In       4.57344802       0.21127252       5.66891746
In       4.57380366       2.75653683       3.58393361
In       2.03135125       2.75651438       1.50264368
In       2.03064757       2.75648313       5.66822851
In       4.57039930       0.21156400       1.50185661
12
Lattice="5.016891002655029 0.0 0.25328853726387024 1.9802453285938952 4.606821806790754 0.2522181570529938 0.0 0.0 7.479198932647705" Properties=species:S:1:pos:R:3 pbc="T T T"
As       3.20106940       0.58889826       7.32154912
Ru       2.77109670       3.61241023       5.82516847
O        3.71857747       2.59583255       4.40766603
As       5.37959741       2.02493215       4.33207424
O        2.40516643       0.06779258       5.87572304
O        0.22825280       0.27459824       4.15275385
Ag       2.77150721       3.61270871       2.08696372
O        2.57006764       0.17647783       1.34371729
O        3.33304334       2.34119174       7.24481011
O        4.86277097       0.02296800       7.24591214
O        6.00753054       2.43786291       2.83079220
O        1.15605786       2.54985636       5.52629916
9
Lattice="5.576436996459961 0.0 -0.14027822017669678 -2.6110438446806095 4.9507346084767665 -0.12285658717155457 0.0 0.0 5.543615341186523" Properties=species:S:1:pos:R:3 pbc="T T T"
F        1.53261263       2.12963257       3.43681331
F        0.49473702       4.25164216       0.95527698
Ag       2.32714510       4.01808363       2.07023181
Ba      -0.53184100       2.38436859       4.97162063
F        3.89041661       0.58394959       3.31548463
F       -1.36222724       4.24416112       3.21337036
F        0.63579986       0.69669752       0.99045846
F        3.02900070       2.25277597       1.06458878
Ni       2.18215035       0.74524239       2.20056695
15
Lattice="5.048576354980469 0.0 1.2606738805770874 -0.2976046452154329 5.6710042118900565 1.6031187772750854 0.0 0.0 7.696274280548096" Properties=species:S:1:pos:R:3 pbc="T T T"
Ag       4.50513646       0.96374217       1.57962717
F        0.68610603       3.84687079       3.46686272
F        0.21285060       2.15492546       5.55115873
Pd       4.49514057       3.91985263       6.33051539
F        2.58982359       2.01220894       2.44112442
Ag       2.20253473       1.07250738       4.99543745
F        4.13217811       0.01080306       4.15191534
Pd       1.92473787       3.77367092       1.85995615
F        1.15125804       5.53569621       9.07251838
F        3.31755083       4.65446960       2.97196721
F        3.34620371       1.01731899       7.13284267
F        0.81173413       4.87597630       6.15903155
F        3.10437321       3.03944471       5.21900413
F        3.20970228       3.84680690       7.94315147
F        0.55866671       2.81807609       8.46688016
4
Lattice="4.673750400543213 0.0 2.672358751296997 1.5467349036376272 4.411412300882048 2.6788480281829834 0.0 0.0 5.380938529968262" Properties=species:S:1:pos:R:3 pbc="T T T"
Na       3.14582658       1.44571035       3.53387337
La       1.58353731       3.65206070       6.22857681
In       1.59220161       0.34416063       6.23358342
Hg       4.70106146       2.54816428       6.21741540
15
Lattice="3.5704052448272705 0.0 -0.0006028417265042663 -1.7824011755629965 9.15066405513381 -0.668373703956604 0.0 0.0 11.097514152526855" Properties=species:S:1:pos:R:3 pbc="T T T"
Mg       2.84350275       3.02902798       3.84472165
Hg       1.05843660       5.31536071       4.27944527
Mg       1.05962179       2.55475103       0.92782019
Hg       2.84190003       1.21587781       6.18057951
Mg      -0.72469610       6.99079098      10.33715525
Hg       1.06325896       4.59004370       9.82106335
Hg       2.84525604       0.21624804       0.24801259
Hg      -0.72559647       5.96899562       7.42353609
Cd       1.06108616       7.40576501       1.99814217
Cd       1.05953908       3.61697171       6.75236351
Hg      -0.72628237       7.81152795       4.83413246
Cd       1.06511971       8.36816990       7.75179176
Hg       1.05838840       0.73053602       3.21081160
Hg      -0.72534836       4.88693275       1.48965684
Cd       1.06591802       1.67230801       9.06350227
9
Lattice="5.664351940155029 0.0 0.0072896843776106834 0.0034659828174749985 7.734581647584241 -4.472906112670898 0.0 0.0 8.949283599853516" Properties=species:S:1:pos:R:3 pbc="T T T"
Sr       5.61098808       2.26768772       0.29780550
Hg       5.60934420       1.68605543       3.62472984
Hg       5.61292095       6.83343450       3.62643660
Ba       2.77946471       4.26723782       2.82772725
Sr       5.61263253       4.26027369       5.79383406
Ba       2.77735394       1.08071638       6.25636048
Ba       2.78099137       7.44806143      -2.68627380
Pb       2.77829580       4.25504807      -0.85642895
Sr       5.61186730       6.25719922       0.30350624
10
Lattice="4.3213982582092285 0.0 0.0015061122830957174 4.2323766700588394e-05 4.3194479940248245 0.002124879276379943 0.0 0.0 10.87744140625" Properties=species:S:1:pos:R:3 pbc="T T T"
Pr       3.41054652       3.50367859       3.94614403
Al       3.41010937       1.34341754       1.19983724
Al       3.41047543       3.50391082       8.09370477
Pr       1.25021505       1.34449423       9.31873857
Ga       1.24837316       3.50350558       6.63717365
Ga       3.41126047       1.34337557       6.63882933
Au       1.24961468       3.50399656       1.19971571
Ga       1.25088319       1.34386371       2.69750158
Al       1.25007609       1.34467716       5.18295387
Ga       3.41055657       3.50357638      10.57675777
4
Lattice="3.7922074794769287 0.0 2.188176393508911 1.26480270357797 3.5737835657200074 2.188296318054199 0.0 0.0 4.377588748931885" Properties=species:S:1:pos:R:3 pbc="T T T"
Mg       3.69217195       2.32969793       5.94869422
Ga       1.16424216       0.54303333       1.57235750
Rh       1.16521465       3.22362225       5.95045354
Li       2.42732321       1.43607407       3.75963944
6
Lattice="4.914386749267578 0.0 2.8415215015411377 1.6419656478058757 4.631498472756043 2.84120512008667 0.0 0.0 5.674712657928467" Properties=species:S:1:pos:R:3 pbc="T T T"
Dy       5.23329016       2.87573345       6.33562924
Eu       3.59472991       1.71833227       3.49714159
Ga       2.77537137       4.61080400       7.75065074
Ga       1.95667663       2.29901745       6.33338519
Ga       2.77659621       4.61121919       4.91877464
Ga       5.23776428       4.61114272       9.17402724
4
Lattice="3.6936933994293213 0.0 -1.7635703086853027 -0.849493543956861 3.602984057953916 -1.7688679695129395 0.0 0.0 4.697227478027344" Properties=species:S:1:pos:R:3 pbc="T T T"
Li       1.14334142       1.17945076       3.22155808
Hg       2.27995768       0.27720753       0.87347175
Li       0.00749151       2.07808992       0.86815849
Cu       2.57279395       2.97227969       1.45301527
10
Lattice="2.7136130332946777 0.0 -0.0030027341563254595 -0.001999385099869814 5.252284623109557 -1.5511878728866577 0.0 0.0 6.250453948974609" Properties=species:S:1:pos:R:3 pbc="T T T"
Be       2.11513480       4.59676086       2.40639532
Be       0.75982192       1.29954647       0.88905833
Mn       2.11541071       2.94099953      -0.02291410
Mn       0.76105594       1.00044168       4.91533244
Mn       2.11753832       1.46441981       2.68789739
Mn       0.75823041       3.39561950       4.02050000
Be       2.11504877       5.04537946      -1.29181922
Be       0.75803478       3.09394526       1.79332215
Be       0.75903453       4.82558527       0.56130065
N        2.11583611       2.19699185       4.46219146
12
Lattice="6.7576518058776855 0.0 2.3418920040130615 3.3919302986959106 6.187786169133452 1.1826931238174438 0.0 0.0 7.328918933868408" Properties=species:S:1:pos:R:3 pbc="T T T"
Ce       8.98185762       4.50695546       9.16616004
P        4.03373022       0.47592857       1.69257769
Sr       5.60384530       4.52908693       4.33164438
P        4.04536323       4.41915177       1.69787841
P        3.93389644       2.44970699       5.83922492
Hf       5.59851549       2.44731833       7.99051743
Sr       5.59540177       0.36652728       4.32274647
Ce       2.21558839       0.38960334       6.81542935
Sr       2.22118331       2.44778765       3.15486177
P        0.39695743       0.47599339       4.61147669
P        7.26402670       2.44716047       2.81444003
P        7.16568090       4.41912337       6.96195339
6
Lattice="4.045117378234863 0.0 -0.7289168834686279 -2.0830459994680273 3.54529079304319 -0.007299994118511677 0.0 0.0 11.53060245513916" Properties=species:S:1:pos:R:3 pbc="T T T"
Eu       1.73013880       1.86769440       8.62042457
Cl       3.49334970       0.51534883       6.80048130
Cl       0.80745416       1.32441955       3.55652510
Si       0.12833866       0.92355855      11.31348656
Eu       2.53049893       2.34233694       1.52728130
Si       0.09414960       3.29052044      11.10506630
5
Lattice="4.128739833831787 0.0 -1.5330380201339722 -0.5870735840867813 4.088525730160145 -1.5427507162094116 0.0 0.0 6.343802452087402" Properties=species:S:1:pos:R:3 pbc="T T T"
Ba       3.06439325       2.49510006      -1.09184328
Li       0.11705423       1.46923193       3.61403358
Pd       0.25660014       4.01498439       4.02237017
Pd       1.74776567       0.96997800       1.66859124
Ga       1.88479184       3.51525951       2.07701337
12
Lattice="5.927855491638184 0.0 -0.520620584487915 -3.0340983855808195 5.099278567281317 -0.5151545405387878 0.0 0.0 11.460437774658203" Properties=species:S:1:pos:R:3 pbc="T T T"
Sm       0.14943814       4.89620120       3.49885176
Zr       1.68686625       0.64888335       9.74670541
Er       2.38359824       1.94070703       6.72816458
Er      -0.55123552       3.66658453       6.72475912
Er      -2.09808734       4.48667122       0.78720248
Tm       3.13649495       3.19718917       3.49812567
Er       0.94828956       2.75517340       0.78800234
Er       3.88187302       1.02969117       0.79073696
Ho      -1.29870489       2.34789759       9.74789259
Tm       0.19727681       1.49679588       4.01400918
Zr       1.64403319       4.04780305       9.22724374
Er       5.43051794       0.20890235       6.72620846
12
Lattice="3.2608420848846436 0.0 -0.0037101132329553366 -1.6295452615170942 5.561326191515573 0.12640611827373505 0.0 0.0 15.054040908813477" Properties=species:S:1:pos:R:3 pbc="T T T"
Ca       1.52136001       2.98971250       0.88448538
In       1.52188808       1.85294791      11.19327894
In       1.52439467       0.01627692       2.02718626
Ca      -0.10074085       3.76333549       9.23553157
Re      -0.10654670       1.88587705       3.44789720
In      -0.10118755       0.74313056       8.43755130
In      -0.11462072       0.71021857      13.94177290
In      -0.10805420       3.71386628      13.13395802
Re       1.52283158       5.12778534      11.37803358
In      -0.10049764       2.92850025       6.16830278
Re       1.53136592       3.92025621       3.88119495
In       1.52621194       0.26043470       5.31421136
10
Lattice="3.5943167209625244 0.0 -0.4712742865085602 -0.11476602355333732 4.8019544030881205 -0.8676159977912903 0.0 0.0 13.981755256652832" Properties=species:S:1:pos:R:3 pbc="T T T"
Cd       2.11304054       4.17914147       7.76698159
Cd       1.00440686       2.64978948      13.26865902
Dy       3.19602405       3.19189015       2.06289630
Dy       0.21094301       1.56102810       7.20704308
Cd       1.75688036       3.69459510       5.05397921
Cd       2.40249760       2.10400002       9.98762330
Cd       2.80289646       0.17089478      13.04281449
Cd       1.64792188       1.05979046       4.21329938
Cd       0.60078762       4.58189995      10.19481691
Cd       1.29350237       0.57183870       1.49783561
20
Lattice="8.682586669921875 0.0 0.06725715100765228 -1.1498563980101157 8.357883840996772 0.5659546852111816 0.0 0.0 11.81293773651123" Properties=species:S:1:pos:R:3 pbc="T T T"
K        7.98761593       1.43349861       3.09764521
I       -0.55277057       4.53690602       0.71978194
K        6.73600756       7.47368522      10.61307075
I        3.59932330       6.66659464       6.96582792
K        6.62667890       5.11057816       5.75074455
I       -0.12152962       5.16525865       8.77874001
I        4.59410959       4.84020906      10.28511238
I        6.05301582       1.42319611      11.81988546
I        4.76298069       1.96881351       4.42364314
K        2.39274427       7.47071165      10.58285558
K        3.20346885       3.45226424       1.51069471
K        2.74407319       3.11129790       7.27453606
Pt       7.31059376       3.28760304      10.33125078
I        0.24276281       8.23884494       6.12861920
I        1.33516307       1.74357350      10.30632857
Pt       2.39596350       7.45205573       4.67940628
I        1.16275663       4.56763306       4.35222360
I        6.49699262       2.03197569       8.06491881
I        4.54686278       6.66105151       3.22893947
I        1.18245455       8.22924124       2.38030893
12
Lattice="5.677085876464844 0.0 -1.2562240362167358 -2.3954227471454885 5.154713812484641 -1.249571681022644 0.0 0.0 8.713851928710938" Properties=species:S:1:pos:R:3 pbc="T T T"
Tm       3.85580439       0.55126930      -0.80589537
Au       0.09040087       3.56068495       4.77039406
Au       3.57314909       0.11702372       2.24570649
Au       2.38458426       2.67364162       5.94632623
Cd       4.12469971       0.98131351       4.75110673
Au       0.71878886       0.11289657       7.20291094
Tm       2.63890045       3.10732300       2.82106909
Tm      -0.17071996       3.15232915      -0.81544563
Au      -0.46522691       2.69210796       2.24467248
Tm       0.99736211       0.52789134       4.06844703
Au       1.28173389       0.97846220       1.01370715
Au       2.92429607       3.55213831      -0.24029993
7
Lattice="3.938159704208374 0.0 1.4751015901565552 1.5495304714068823 5.491471861474351 1.895985722541809 0.0 0.0 6.034845352172852" Properties=species:S:1:pos:R:3 pbc="T T T"
Ru       1.34050312       2.77448420       5.66516949
Ce       3.11504220       0.11770923       6.91437036
Ge       2.85818296       3.13949790       7.62926496
Ge       1.96964162       4.52406320       3.98177159
Ce       4.10160925       2.05414228       4.27203931
Ru       3.48697357       4.89130528       5.94428179
C        1.63905372       1.08450566       4.85556802
11
Lattice="3.8032541275024414 0.0 -0.004166759550571442 -1.9053537126230249 3.2943214405257524 -0.000998689909465611 0.0 0.0 14.327370643615723" Properties=species:S:1:pos:R:3 pbc="T T T"
Co       3.54274330       0.40804048       5.32853209
Ho      -0.26071317       2.60412629      11.58060452
P        3.54456495       0.40707676       9.61170253
Ho      -0.26204902       2.60449289       7.66479787
Co       3.54537331       0.40690747      13.59204297
Ho      -0.26173419       2.60393053       1.18306132
Co       1.64126268       1.50645787       9.56553371
P        1.64188662       1.50628017      13.56654917
P        3.54453315       0.40776239       3.02431265
P        1.63907668       1.50691922       5.89486950
Rh       1.63901827       1.50625042       3.58348908
3
Lattice="3.3447535037994385 0.0 -0.8075884580612183 -0.17476076805523263 3.336264871204587 -0.8191744685173035 0.0 0.0 7.177407264709473" Properties=species:S:1:pos:R:3 pbc="T T T"
Nd       2.95326869       0.20128768       1.72667031
Ho       0.40082716       1.03764237       5.71241071
Os       1.60958516       2.30738453       3.39220838
8
Lattice="4.893123626708984 0.0 1.5107694864273071 2.22397524307928 4.361804925991402 1.5084035396575928 0.0 0.0 8.742586135864258" Properties=species:S:1:pos:R:3 pbc="T T T"
Au       2.59243166       3.75381583       8.46968094
Mg       3.44428223       4.27425771       5.68438416
Ce       2.97820417       0.98950620       7.17549968
Ce       1.68256891       3.19538928       2.68115252
Cd       4.77987231       2.09471301      10.05311991
Au       5.68803208       2.65055364       7.08675427
Au       3.87225551       1.54052991       4.27630691
Au       2.07023208       0.43535447       1.39376703
10
Lattice="4.6658196449279785 0.0 -0.006460019387304783 -0.009492300217118691 4.672316922498716 -0.0068021067418158054 0.0 0.0 10.423930168151855" Properties=species:S:1:pos:R:3 pbc="T T T"
Nd       3.35432175       0.27874437       2.12510569
Sb       3.35467964       0.27821133       5.91046147
Sb       3.34971630       2.61354158       9.78849845
Pt       3.35414361       0.27703994       8.48104582
Pt       3.34980810       2.61352877       4.57818689
Sb       1.01699590       2.61318316       3.24835654
Sb       1.02070248       0.27758119       9.79677813
Nd       1.01764486       2.61424226       7.03107864
Pt       1.01714512       2.61423446       0.67775543
Pt       1.02128866       0.27761238       4.58233159
10
Lattice="6.123402118682861 0.0 -3.4738738536834717 -1.9856276845592902 5.795042969674882 -3.4771337509155273 0.0 0.0 7.1219162940979" Properties=species:S:1:pos:R:3 pbc="T T T"
Nd       0.93103734       0.32279322       4.51656695
Pr       3.18914770       3.08698244      -2.51614372
O        2.15181236       1.63724643       2.77728256
Nd       0.22573075       3.22663576       2.61623792
Pr       1.11610629       0.19150044       0.95597655
Nd       3.37443362       2.95389298       1.03992585
O        4.22065731       4.53782325      -0.69634887
Nd       4.08096531       0.05409171       2.93526869
In       4.18034079       0.19127672      -0.78046089
In       0.12401921       3.08502051      -0.78419209
8
Lattice="3.909083843231201 0.0 0.00600982503965497 -1.9446588407246712 5.984678683230594 0.0009284085826948285 0.0 0.0 9.09303092956543" Properties=species:S:1:pos:R:3 pbc="T T T"
Dy       2.86624275       2.95942278       3.34113162
Tb       0.91551921       3.74960316       6.22657414
Tb       0.91503379       5.58777621       1.67860157
Dy       0.90937569       0.39294192       4.56210799
Ru       2.86678285       1.75319488       6.22811739
Dy       0.90846991       0.39373677       7.88403846
Dy       2.86560904       2.95941761       0.01990108
Ru       0.90844048       1.59915925       1.67709430
10
Lattice="5.603426933288574 0.0 -1.6095967292785645 -3.052529354793066 6.21134026711835 0.008194765076041222 0.0 0.0 10.767617225646973" Properties=species:S:1:pos:R:3 pbc="T T T"
Ge      -2.33592137       5.03778711       0.88777401
Ge      -0.66414800       1.93830898       6.21515015
Cl      -1.24459367       3.31770487       0.24547553
Cl       1.62450807       5.40258286       8.71090257
Cl       0.04269335       2.29718762       4.22172375
Cl       2.56261097       4.68110076       1.26942203
Cl      -1.75893756       3.65429913       6.85369372
Cl       3.69305227       0.21974636       4.63322306
Cl       1.96031310       0.54643550       0.84858064
Cl       0.98199201       1.57082780       7.53932043
12
Lattice="3.2148473262786865 0.0 -0.00401151180267334 0.0016049281551247245 6.190398961874352 0.9756918549537659 0.0 0.0 7.6270599365234375" Properties=species:S:1:pos:R:3 pbc="T T T"
Be       2.63228964       4.05671026       5.56981815
Be       2.63034115       1.13172140       3.77460915
Cr       1.02606795       4.80743065       1.35603496
Cr       2.62880805       0.17331363       1.38005073
W        2.63430491       2.83575529       7.69567185
W        1.02297134       2.23632967       5.24629884
W        2.63164226       3.69716883       3.18557553
Be       1.02434892       4.35064324       6.71450793
W        2.63302970       6.13959790       7.02308076
W        1.02429036       5.53532984       4.50210559
W        1.02386621       1.93592577       2.14861896
Be       1.02463711       0.99101137       7.48478996
6
Lattice="4.947027206420898 0.0 -0.004207952413707972 -2.474437080990981 4.286056478305284 0.00048238158342428505 0.0 0.0 6.7121758460998535" Properties=species:S:1:pos:R:3 pbc="T T T"
Li       1.37014219       2.48985585       2.18131273
Dy      -1.10418020       3.91811079       3.72940866
Pr      -1.10098251       3.91702045       0.37344013
Li       3.84430572       1.06006790       5.27517606
Hg       1.36985728       2.48811176       5.28409489
Hg       3.84558777       1.06103121       2.17167620
16
Lattice="6.586248874664307 0.0 -0.014671477489173412 -1.7899758595135615 6.360394263426011 -0.05113852024078369 0.0 0.0 10.642251968383789" Properties=species:S:1:pos:R:3 pbc="T T T"
Tl       4.31386504       3.36185443       4.41250212
Tl      -0.07888606       6.26589034       3.86051704
Dy       5.02142874       4.30229848       1.50017121
Dy       1.19954838       3.15499927       9.49258106
Dy       4.98867960       0.31329595       9.49851633
Tl       1.79948294       4.91132654       1.42314607
Dy       1.13782381       3.12995817       4.03114110
Tl      -0.29985424       1.77178089       6.79040042
Dy      -0.07797095       6.24558412       9.76663948
Dy       4.95232861       0.21447604       4.05605004
Tl       4.43763108       3.53424176       9.12006959
Tl       2.23431651       4.82876948       6.80383859
Tl       3.12005133       1.76553033       1.44575933
Dy       2.95142481       1.56680734       6.78412057
Dy      -0.98537398       5.09191399       6.66435962
Tl      -0.09708587       1.35026841       1.46398411
10
Lattice="4.086010932922363 0.0 -1.08552086353302 -0.004725691690363666 7.2787565149470295 -0.013309046626091003 0.0 0.0 8.243865013122559" Properties=species:S:1:pos:R:3 pbc="T T T"
Nd       4.07973641       5.85349785       4.20836138
As       2.52118675       5.08409803       6.57778547
Nd       3.34952956       3.18944349       1.45730219
Pd       1.58461526       0.69917029       3.04013975
Nd       2.38139625       2.20904184       6.05532933
Nd       3.11220429       6.82953109       0.55846832
As       1.47729799       5.30065224       2.64348632
As       3.94266324       1.44630657       3.69503297
As       0.89840534       1.66320948       0.45985689
Pd       0.79269571       4.34538989       0.06572543
12
Lattice="6.616671085357666 0.0 0.021896008402109146 0.006773327992749884 6.461284425091503 -1.6467221975326538 0.0 0.0 6.672474384307861" Properties=species:S:1:pos:R:3 pbc="T T T"
Cu       0.36292427       1.76873641       2.73100453
Cu       1.32901213       5.63094477       0.98525943
Te       1.99882676       2.99638236       1.16181697
Te       5.51754640       1.80544649       6.03945215
Cu       4.57427015       2.49877513       1.79806373
Te       0.48440930       5.02011420       5.22550789
Cu       4.60709717       5.73878679       4.30808895
Te       3.73126772       6.44864855       0.09654347
Te       2.12718654       0.03830141       4.96658088
Te       5.51650713       5.02729250       1.86588389
Cu       1.32650487       2.51300598       5.23667474
Te       3.74415882       3.18710372       4.23183853
12
Lattice="5.540774345397949 0.0 -1.6893908977508545 -2.997321484946923 4.634265883891039 -1.7579017877578735 0.0 0.0 5.786019325256348" Properties=species:S:1:pos:R:3 pbc="T T T"
In       1.79616307       1.67446422       1.22839849
Nb      -0.34742366       2.81871554       4.11478397
Nb       3.93765389       0.52973028       4.12407416
Nb      -2.47290416       3.99157217       1.19268850
O        1.38535667       3.98957148      -1.74058424
O        0.51297769       1.37556400       2.96440983
O       -0.79380659       3.99004714       2.43736415
O        3.51580245       1.67943570       2.49351699
O       -1.27427157       4.13099032      -0.42665851
O        1.86636006       3.85251449       1.12444120
O        0.08110800       1.67365682      -0.04370899
O        3.08118344       1.97008180      -0.51291223
12
Lattice="5.366121768951416 0.0 2.1161048412323 2.4333351733589685 7.362367071651232 1.9120820760726929 0.0 0.0 8.034619331359863" Properties=species:S:1:pos:R:3 pbc="T T T"
In       0.65613203       1.91664167       2.48982955
Na       1.48160699       4.42409109       8.45168268
In       4.86180184       2.51423420       7.63599682
Hg       2.25782457       6.79931495       6.49282648
Na       2.88709469       0.58320808       4.66885267
Hg       1.77517130       1.33162988       7.58427653
Hg       3.40625852       6.18630847       3.50387400
Hg       2.59897269       3.69452401       5.51829982
Hg       4.04496044       0.06895995       1.67612046
Hg       4.54879654       5.60470432       8.54559778
Hg       5.70879118       4.96046139       5.52143866
Hg       3.71055946       3.09188733       2.62264634
5
Lattice="3.7996912002563477 0.0 -1.2325518131256104 -0.39930764307467803 3.775873240015132 -1.2347780466079712 0.0 0.0 6.469775199890137" Properties=species:S:1:pos:R:3 pbc="T T T"
Pt       2.49735377       0.36163485      -0.03914598
Ho       0.00100655       1.80989698       5.20663278
Al       1.05155583       0.86486223       1.97251562
Pt       1.30367705       3.25723086       2.75067811
Al       2.75046888       2.75507454       0.73951894
6
Lattice="4.762530326843262 0.0 -0.0007036353927105665 -2.3762483017257234 4.127871413700219 0.00043528687092475593 0.0 0.0 8.411545753479004" Properties=species:S:1:pos:R:3 pbc="T T T"
Ba      -1.37372792       3.28583930       5.49690848
Au       3.38513590       0.53393244       8.26002516
Er      -1.37447012       3.28555340       1.28921572
Au       1.00579677       1.90933677       2.73586819
Sb       3.38472246       0.53522317       3.23710280
Sb       1.00536491       1.90902455       7.75580730
16
Lattice="6.355910778045654 0.0 0.3461352288722992 3.1620407783623805 6.693419681590899 2.6319079399108887 0.0 0.0 8.754114151000977" Properties=species:S:1:pos:R:3 pbc="T T T"
O        3.76350538       0.86983663       2.05244603
O        3.94639930       4.94970437      10.33905996
O        8.18210325       4.74890875      10.40418763
I        3.09517839       1.44331901       5.70848555
N        2.87843140       0.55799250       1.17940152
I        4.86374940       5.22653876       7.05985219
I        2.78833309       4.24330973       5.42453797
Mg       6.08546726       5.03238342      10.27982913
N        2.82394881       5.48592389      10.23447762
O        1.91926677       1.40980716       0.96695335
O        6.13602818       6.14838956       3.22816900
O        5.86939042       0.02548230       8.08001110
O        5.88283523       3.05407189      10.06823899
I        6.12180055       1.34645877       1.93374935
O        6.29586982       1.45807949       3.64912152
O        6.11543246       6.04776534       8.53416624
8
Lattice="3.4875972270965576 0.0 0.0020461888052523136 -1.7520367869382767 3.019562432286505 -0.012682834640145302 0.0 0.0 20.9747314453125" Properties=species:S:1:pos:R:3 pbc="T T T"
Hg       2.90537745       0.29521654       6.20142641
Hg       2.90564081       0.29687751      16.74802182
Nb      -0.59197534       2.31848853      11.37971756
Ta       1.15474991       1.30037239       1.01576326
Se       2.89915366       0.30279846       9.71184223
Se       2.89954052       0.30859809      13.09793665
Se       2.90594430       0.29131865       2.69150813
Se       2.90385484       0.29260604      20.31747503
10
Lattice="4.737634658813477 0.0 -0.0007022162899374962 0.0019353198347718229 4.740695558336106 0.003403601236641407 0.0 0.0 14.479544639587402" Properties=species:S:1:pos:R:3 pbc="T T T"
K        0.32089309       2.63974168      13.03467870
Mg       2.68754194       2.63757636       9.46678493
K        2.68673262       0.26979089       5.91119176
Tl       0.31822405       2.64095559       4.39658846
In       2.68656330       2.64196972       2.23409895
Tl       2.68969215       0.26944140       0.06534502
In       0.31729992       2.63786260       7.48579806
In       0.32221214       0.26912692       2.23244295
Tl       0.31479122       0.26969389       9.47388828
In       2.68767067       0.26901672      11.45446022
11
Lattice="3.925888776779175 0.0 -0.6629301905632019 -0.11154431776725378 3.9248948701548336 -0.6615193486213684 0.0 0.0 11.973450660705566" Properties=species:S:1:pos:R:3 pbc="T T T"
Ce       3.04467465       1.36120594       1.71926208
Pr       1.45058513       3.76108426       4.24950137
Se       2.34408617       0.64087021       9.54290134
Cu       0.12956066       0.37900827       8.36831433
O        0.86013481       1.13383260       0.74181400
O        2.76412735       3.09429001       0.06734675
O        1.30194927       1.59051632       3.37260981
O        3.21058572       3.55138032       2.69849214
Cu       2.03457342       2.34684333       7.70905940
Se       3.74283470       2.08099753       5.87429597
Pr       0.59850073       2.88621384      11.16390377
5
Lattice="4.010486125946045 0.0 -1.5865856409072876 -0.6244190801385301 3.9633176686057583 -1.5720162391662598 0.0 0.0 5.905916213989258" Properties=species:S:1:pos:R:3 pbc="T T T"
Ca       0.57450642       1.22549026       4.19879261
Ga       2.69210814       3.70453717      -2.20014867
Li       1.73180971       0.23569780       1.24125621
Cu       3.42451867       2.21511147      -0.33586730
Ga       1.84053845       2.71045035       1.53174114
15
Lattice="7.176201820373535 0.0 3.912716865539551 2.4833666556593235 6.7376262220971395 3.9098310470581055 0.0 0.0 8.484902381896973" Properties=species:S:1:pos:R:3 pbc="T T T"
Se       7.91031449       2.48561574      11.03737594
Na       3.27997072       4.17628897       6.84496727
Se       9.20582498       5.80792730      13.02875422
Na       6.86888896       4.17922221       8.79697268
Na       5.62940218       0.80782735       6.84859618
Ca       2.04034819       0.80707511       9.12821207
Tm       6.86879796       4.17714637      13.04636914
Tm       3.28258707       4.17853829      11.08736197
Tm       5.62668292       0.80778980      11.08686249
Se       9.30150285       5.87282406       8.48783822
Se       5.64572114       5.73690744      11.03579867
Se       5.82711166       5.87265177       6.56559210
Se       4.53426772       2.55104943       4.57258863
Se       4.44056422       2.48527458       9.11532096
Se       8.09175687       2.61571286       6.56481638
16
Lattice="7.330312252044678 0.0 3.922569513320923 2.630467989308129 6.844275731461001 3.92480206489563 0.0 0.0 8.826333045959473" Properties=species:S:1:pos:R:3 pbc="T T T"
La       3.37301112       3.74192954       7.73517697
La       2.01036689       0.36047336       5.72775378
La       2.32879827       0.57842233       9.67547181
Br       2.28244738       5.58367648       5.24399274
S        0.96685424       2.16230985       7.69242994
La       5.65317942       0.41688444       7.73605846
La       6.93436433       3.74174719       9.63329021
La       7.25244804       3.96377146      13.58484468
Co       4.63103211       2.15829174       9.65488207
S        5.94611530       5.58141848      11.61655442
S        2.28126542       5.58089671       9.66280314
Br       4.63108782       2.16093546       5.24466513
Br       5.94751391       5.58088651       7.20606687
La       5.88706609       0.57894802      11.57801982
Br       0.96372894       2.16137381       3.28119086
La       3.60591295       3.90032168      11.58061821
6
Lattice="4.643418788909912 0.0 2.686871290206909 1.5496967809802977 4.379045252515761 2.6843950748443604 0.0 0.0 5.366912841796875" Properties=species:S:1:pos:R:3 pbc="T T T"
Ag       4.65319219       3.86582029       4.38624846
Pt       4.64876308       2.22428961       7.07017065
Dy       4.65157558       0.58109994       4.38790496
Pt       2.33372853       2.22490821       5.72988091
Pt       1.55548767       0.02958266       4.38354078
Pt       2.33197037       2.22367415       3.04131025
6
Lattice="2.782766342163086 0.0 0.005789266433566809 0.003132481630414338 2.782801772411295 0.0015882306033745408 0.0 0.0 12.023326873779297" Properties=species:S:1:pos:R:3 pbc="T T T"
Pt       1.20628696       2.67939955      11.29366352
Pt       1.20824289       2.68069548       7.16943651
Pt       1.20835436       2.68172917       3.39478908
Re       2.59816851       1.28977577       5.28701047
Pt       2.59715167       1.28926084       9.25869458
Pt       2.59772383       1.28963661       1.30985234
18
Lattice="7.801525592803955 0.0 1.077457308769226 -2.469234347809476 8.38636046088169 -3.554602861404419 0.0 0.0 12.3971586227417" Properties=species:S:1:pos:R:3 pbc="T T T"
Ba      -0.19291324       1.22332927       0.43556042
Ca       1.87967634       7.59994772       1.79241626
I        4.44419068       6.17744445       2.98810106
I        5.64027096       2.02554578       4.75160901
I        0.00097944       7.24808752       8.50638912
I        4.15865889       7.73480408       7.27008330
I        3.23356486       6.80668181      -1.06581545
I        1.49946132       4.10272747       5.86507313
Ca      -1.08107625       6.03665018       5.85222420
I        0.63905574       4.56704054       1.64239289
Ca       3.19333298       3.32100122       3.29560466
Ba      -1.49111297       5.35483841      -1.29084149
I        0.29558433       8.26560932       4.23188747
I        0.96473488       3.13373466      10.12598984
I        4.51046601       2.51797169       0.55694129
Ca       2.62150230       5.32383572       8.54795672
I        5.29593585       3.88713000       8.77901792
I        1.85603280       0.36466968       3.40362599
4
Lattice="3.839160919189453 0.0 0.008682183921337128 -1.2887464680231278 3.6172439180936173 -0.004901857115328312 0.0 0.0 13.290904998779297" Properties=species:S:1:pos:R:3 pbc="T T T"
K        0.89196165       1.77095423       2.80246222
Ca       0.89508612       1.77196552       9.43963364
Ca       2.17007244       3.58090916      12.45620412
Ca       2.17046886       3.57983696       6.42299749
5
Lattice="3.8529930114746094 0.0 -1.2794218063354492 -0.42060559657108465 3.826139030339404 -1.2805098295211792 0.0 0.0 6.463243007659912" Properties=species:S:1:pos:R:3 pbc="T T T"
K        2.35874185       0.34487181       0.24627956
K        0.89943981       3.01485155       2.29693951
C        3.55617906       1.67897574       3.85973865
N        3.18402938       1.26352812       2.73672965
N        0.07299582       2.09684703      -0.19941363
20
Lattice="6.9921441078186035 0.0 1.7621122598648071 0.2370742878019432 7.002308362385546 1.7898932695388794 0.0 0.0 7.9817376136779785" Properties=species:S:1:pos:R:3 pbc="T T T"
Cd       1.83557990       3.63694012       5.57685389
Mg       4.74178092       3.07310462       6.11170738
Mg       5.23889255       0.00621229       5.49121442
Ag       0.32842974       2.14557323       3.23094730
Ag       6.15620842       4.38848177       8.41205860
Ag       1.10520605       2.84610704       8.39815837
Cd       6.72292310       1.48835149       7.85107788
Cd       4.67919230       6.30479903      10.17693251
Ag       5.92829579       0.76713971       2.68705850
Ag       2.54055395       4.27396376       2.70770826
Mg       1.75177300       0.21603078       1.50325666
Cd       3.24894552       1.56729120       3.84082060
Cd       0.67761597       5.73100237       8.89131475
Ag       5.43482907       3.64468108       3.28475782
Cd       6.88101490       5.07777767       5.52526899
Ag       3.97646046       5.68886552       4.98399407
Ag       3.31624952       5.00184094       7.81980037
Ag       1.33918063       6.50501272       6.10863844
Ag       2.64498879       0.92207615       6.66133725
Cd       3.99366965       2.34996438       8.96280788
20
Lattice="6.427062034606934 0.0 0.8035845160484314 -1.2727681739028542 7.685507193880224 -1.7374993562698364 0.0 0.0 9.030078887939453" Properties=species:S:1:pos:R:3 pbc="T T T"
Sm       1.25362105       6.28659065      -0.94972393
Nb       2.01064217       5.08069251       2.75692280
Li       5.37083881       4.23832468       2.13392875
Ba       2.68118333       1.62825752       4.61500115
S        0.51174759       5.72314033       5.04283351
S       -0.02584947       1.35377227       5.74939226
S        3.31811425       7.13919089       2.99730777
S        3.46449971       2.45188848       7.53787525
Nb       2.06317270       2.80795325       0.63531601
Nb       5.29609012       1.27959001       8.67050495
S        3.18440704       4.95731324       0.64192508
Nb       5.01190664       6.57451883       4.64133128
S        3.77023995       1.25183937       1.61063559
Li       5.25229657       4.05896245       6.73111717
S        0.79277652       0.67143765       0.18987278
S        0.77279909       3.05607073       2.68033490
S        0.14054888       6.42840721       1.77198065
S        3.98117464       4.32014356       4.19114392
S        0.10942219       3.66017396       8.25127477
S        3.60110904       6.55594595       6.64539186
3
Lattice="3.528085708618164 0.0 -0.8093991875648499 -0.1848814155691578 3.5229004040991954 -0.8074618577957153 0.0 0.0 8.093659400939941" Properties=species:S:1:pos:R:3 pbc="T T T"
Er       1.23350921       0.72970130       7.54003310
Er       2.41952675       1.98001084       4.61867184
Ca      -0.03039924       3.11585893       2.03129615
9
Lattice="4.964295864105225 0.0 0.008125661872327328 -2.519956543478899 6.217775473502931 -1.003266453742981 0.0 0.0 7.159915924072266" Properties=species:S:1:pos:R:3 pbc="T T T"
Ce      -0.60701126       5.25741041       4.99730510
Ce       1.88901231       2.55573187       4.36338213
Ce      -0.60195876       4.54964232       1.69215153
Ru       1.87650692       4.90987915       3.35367964
Ce       4.38447363       0.40316568      -0.02893717
Ce       1.88787033       3.19063207       0.56796294
Rh      -0.59324282       2.81040648       6.05100508
Rh       1.90250702       0.78104105       1.63883915
Ce       4.38586397       1.04743800       3.32429962
12
Lattice="4.013235569000244 0.0 -0.9170243144035339 -0.4322120883361374 8.103545584186335 -1.8728963136672974 0.0 0.0 9.249611854553223" Properties=species:S:1:pos:R:3 pbc="T T T"
Tb      -0.06010850       7.94184916      -0.97414897
Tb       0.17501769       3.64578082       0.05063905
Tb       1.45755396       5.31517835       5.66701600
Tb       2.91067515       2.36636038       2.77844210
P        3.35258773       7.21132420       4.72572902
Tb       2.73370163       6.59654074       2.02011683
Sn       0.81491442       4.48211059       2.86096925
Tb       1.69191134       1.02294885       6.69361303
Se       1.03173440       0.42936194       3.79649024
P        2.29306484       1.75252603       0.07143487
Se       3.55725332       3.11564637       5.61342492
Se       2.08850148       5.84775369      -0.81242375
6
Lattice="3.693819046020508 0.0 -0.003532109782099724 -0.007200155321428728 3.6964630097970663 -0.0033865850418806076 0.0 0.0 12.869890213012695" Properties=species:S:1:pos:R:3 pbc="T T T"
Tb       2.54842869       0.12680745       3.33399357
Tb       2.54628461       0.12413143       7.31518564
Sm       0.69695135       1.97384485       0.86744550
Tb       2.54598004       0.12632050      11.28802730
Mg       0.69575404       1.97617547       9.26259682
Mg       0.69810335       1.97552793       5.35949048
18
Lattice="5.543073654174805 0.0 0.031536765396595 0.021484765649238315 5.527407852886957 0.03438019007444382 0.0 0.0 8.999516487121582" Properties=species:S:1:pos:R:3 pbc="T T T"
Cu       1.98882255       3.64035231       2.08906929
Zn       3.52038428       2.06839466       5.89001154
Cu       4.76866176       0.87288843       7.81392728
Ca       0.75799622       0.85412663       3.93988463
Cu       3.52426635       2.13264447       3.30099311
Zn       5.11009437       3.64303839       2.13664037
Ca       3.51293213       3.66875037       8.54368831
Zn       0.74957948       2.44463918       6.61459123
Cu       3.52969535       5.15364267       3.34694780
Cu       0.75010749       2.37609734       0.20377322
Cu       5.04204374       3.64653988       4.73750064
Cu       4.73057110       0.87034122       1.42214298
Cu       2.31349646       0.87844912       1.41098386
Cu       2.26425098       0.87570942       7.81035255
Cu       3.52741254       5.16253642       5.94612889
Cu       2.00277428       3.64555282       4.69109821
Cu       0.75826212       4.88385547       6.59216237
Cu       0.76760231       4.89658083       0.19010508
12
Lattice="4.518730163574219 0.0 0.007676462177187204 0.008966695553595848 5.543297191215589 -0.7192742228507996 0.0 0.0 10.789318084716797" Properties=species:S:1:pos:R:3 pbc="T T T"
Sm       2.66980035       1.96925055       0.24525241
Cu       0.41461209       5.42052615       4.94950942
Sm       2.67098082       3.80363422       3.61669074
Sm       0.40946439       2.72901380       6.28870650
Cu       2.67309671       4.84045964       0.92497751
Tb       0.40638790       0.83643947       2.95849509
Cu       0.41213759       1.67843472       8.97662548
Cu       0.40959633       3.54668520       1.59658074
Cu       2.67036633       2.97734896       8.31198294
Sm       0.41351727       4.54919760       9.65864756
Tb       2.66546614       0.14531479       7.66905985
Cu       2.66775396       1.11375746       4.96103099
12
Lattice="5.485459327697754 0.0 0.0041024405509233475 -0.0017726519937703968 7.952581208075174 -0.05777095630764961 0.0 0.0 7.264389991760254" Properties=species:S:1:pos:R:3 pbc="T T T"
Ce       2.54949896       2.84335152       1.97373338
Ca       2.55207035       6.73767642       5.48357114
Ce       5.29281312       5.95277287       1.90788548
Ce       5.29474704       1.89425455       5.53167515
Se       3.94107849       4.31908809       6.90879025
Se       5.29456060       3.22204750       2.94146955
Se       1.17148530       0.44086451       0.65155432
Se       1.16225634       4.31755372       6.90387064
Se       3.93636246       0.44070900       0.65485710
Se       5.29281280       7.17605249       4.48451899
Se       2.55245259       1.67115664       4.59392031
Se       2.54900427       5.59733494       2.77371886
8
Lattice="5.233555793762207 0.0 1.5646239519119263 2.3700283525676866 4.666817042800338 1.5662708282470703 0.0 0.0 9.514907836914062" Properties=species:S:1:pos:R:3 pbc="T T T"
La       2.57777041       0.24949591       3.12723174
La       6.38100005       2.58392188       9.44042021
In       5.43379454       2.00299757       3.09296363
Sm       3.04810211       3.75003644      11.04219534
In       2.10054858       3.16928319       4.69164326
Ce       4.47962350       1.41689982       6.28181498
In       3.99636476       4.33278467       7.87191521
In       3.52393427       0.83019894       9.47537345
6
Lattice="4.029238224029541 0.0 -0.0011846518609672785 -0.016436684084824148 4.070103358314478 -1.137844443321228 0.0 0.0 8.105130195617676" Properties=species:S:1:pos:R:3 pbc="T T T"
La       1.52454041       1.24561815       4.47929114
La       3.52807221       3.89829224       6.16300538
N        3.53621248       1.56554012       5.64570661
As       3.53441321       2.75516419       1.94407786
As       1.50809640       2.38860318       0.57086046
N        1.51450588       3.57839671       4.98655723
6
Lattice="4.70133638381958 0.0 2.703338146209717 1.5732780377484088 4.4453782057195905 2.701869487762451 0.0 0.0 5.431791305541992" Properties=species:S:1:pos:R:3 pbc="T T T"
Nd       4.60528710       3.82513789       5.25200674
Pt       3.03286188       1.04360620       5.25469531
Pd       1.47378110       3.25685115       5.25542355
Pd       0.69201975       1.04562987       1.18062159
Pt       0.69146109       1.04290822       3.90901444
Cd       3.04440560       2.70333914       7.96186509
16
Lattice="4.2760443687438965 0.0 0.011430343613028526 0.0076806796984748476 7.486248367812503 0.05623457953333855 0.0 0.0 14.776151657104492" Properties=species:S:1:pos:R:3 pbc="T T T"
Te       2.72916702       3.06359470       4.69991669
Tm       0.60205563       4.96305907      10.75404350
Te       2.73716448       6.76340343       2.35948054
Tm       0.59448167       1.21160963       3.41102203
Tm       2.73510422       4.95850232       7.17692319
La       2.73216147       1.21952849      14.54198036
Tm       0.59061019       1.22523748      10.89153035
Tm       2.73601112       4.96278956      14.56851955
Tm       2.73194464       1.22679946       7.13736784
Te       0.59635559       6.85904386       6.00728605
Te       2.73169747       3.16900076      11.98317220
Te       2.74124011       6.88137023       9.64422318
Te       0.59439728       3.24744405       1.08310497
Te       0.59331406       3.06695849       8.34496954
Te       0.60089374       6.68659775      13.25391401
Tm       0.59161032       4.96409875       3.59090688
8
Lattice="5.135711193084717 0.0 1.6359602212905884 2.0811337371280834 5.581712346557939 2.4436070919036865 0.0 0.0 8.983353614807129" Properties=species:S:1:pos:R:3 pbc="T T T"
Y        1.48574993       0.25297814       6.45133316
Pr       4.60907830       1.98150017       5.53000525
Mg       5.64995098       5.06245676      11.25965674
Pr       1.51093016       3.95323139       6.42312917
Pr       2.58793310       0.07105195       2.94380435
Mg       3.60550559       2.50262950       8.70898164
Y        2.64279689       3.68763819       2.81748768
Y        5.69253565       1.77078484      11.06049347
4
Lattice="2.7974629402160645 0.0 0.0062256925739347935 0.012360662154110393 2.8008688931430665 0.0074854386039078236 0.0 0.0 6.453702449798584" Properties=species:S:1:pos:R:3 pbc="T T T"
Cu       2.62199464       2.73508747       2.67543233
Pd       1.21653547       1.33439785       4.46138009
Be       2.62237197       2.73482052       5.93164482
Pt       1.21754302       1.33572347       0.85818990
11
Lattice="6.423717021942139 0.0 -0.938459575176239 -0.48785183184487835 6.41098029770848 -0.89970862865448 0.0 0.0 8.613229751586914" Properties=species:S:1:pos:R:3 pbc="T T T"
Y        1.86774783       4.27436071       6.76707148
Tb       0.94114668       3.30661282       3.48213260
Y        0.05059901       2.28601143       0.19356552
Y        3.79914836       3.79164613       1.17487415
Y        4.49082468       2.75763198       4.84042190
Y        3.29124549       5.82498213       4.02655328
Y        5.11813089       5.37553911       6.86862151
Y        0.67095137       0.40285153       5.77472525
Y        5.03230714       0.76931399       1.99898771
Y        1.26868322       6.21579890       1.20409286
Sc       3.19732622       1.21521773       7.77090075
6
Lattice="3.6730995178222656 0.0 0.004701226484030485 -0.0024540006861231947 6.116023048173704 -3.51094388961792 0.0 0.0 7.064992427825928" Properties=species:S:1:pos:R:3 pbc="T T T"
Y        1.44577117       0.32423249       5.29985287
Y        1.45064395       0.32650075       1.76696196
Pr       3.28455512       3.38398658       0.01499481
Ni       3.28435098       5.42328600       3.55651814
Y        1.45045125       3.38217626       3.54616361
Ni       3.28598936       1.34383814       3.54067814
4
Lattice="3.616865634918213 0.0 0.0004706729669123888 -0.0005901384656341854 3.615809630872945 -0.000851027260068804 0.0 0.0 7.608436107635498" Properties=species:S:1:pos:R:3 pbc="T T T"
Tb       0.79900468       0.78201706       1.61194095
Tb       0.80209477       0.78305220       5.58018739
Cd       2.60755887       2.58996913       3.59660057
Al       2.60751394       2.59049565       7.39741386
14
Lattice="6.508724689483643 0.0 -0.05815013870596886 -0.004332002488288578 6.772461936204129 -0.003631714265793562 0.0 0.0 7.326022148132324" Properties=species:S:1:pos:R:3 pbc="T T T"
Si       4.10564925       5.73879499       6.13058138
Na       0.87682785       5.74432366       7.21603042
Tb       0.80192696       2.35407052       4.50150725
Na       4.67406790       2.35359661       0.53516263
S        0.16666994       0.71130567       2.22977589
S        2.46937648       5.74391676       4.79480926
S        5.38044090       0.61864227       5.52112878
S        3.07674957       2.35542523       2.95570148
Si       1.43634079       2.35551223       1.62056532
S        3.56067651       5.74190769       0.82725875
Tb       4.74476763       5.74201426       3.24664503
S        1.98926877       2.35735680       6.92604957
S        5.36786526       4.08883023       5.51058695
S        0.17431381       4.01235895       2.23661954
11
Lattice="3.9731650352478027 0.0 -0.7439017295837402 -0.1360998280596395 3.971020108706471 -0.7427179217338562 0.0 0.0 10.940374374389648" Properties=species:S:1:pos:R:3 pbc="T T T"
Ba       2.96509165       2.09654050      -0.28594888
Ba       1.58917894       0.67385630       3.36780119
Fe       0.60360344       3.76305892       9.01935915
Sr       2.27654629       1.38511491       7.00691735
Fe       3.81711790       2.97796141       4.25442115
O        0.60237086       1.70603166       9.03108451
O        3.46326710       2.61404578       2.39390937
O        1.08782434       0.15484053       0.68521907
O       -0.02183082       1.06297339       5.73197530
O        1.89883359       3.04736117       4.99056232
O        2.52043705       3.69219120       8.28613743
10
Lattice="4.405843734741211 0.0 -0.002414092654362321 -0.0021620045316783037 4.406587070335722 -0.002239047782495618 0.0 0.0 10.61706256866455" Properties=species:S:1:pos:R:3 pbc="T T T"
Li       0.63334464       4.23832338       9.55211646
Au       2.83566429       4.23910819       5.61066991
Al       2.83786404       2.03680787       4.25063095
Pr       0.63570218       2.03597763       6.91419623
Pr       2.83608423       4.24010811       1.58312723
Al       0.63442683       4.24010338       4.25001510
Au       0.63502001       2.03766688       2.88684176
Al       0.63557612       2.03679474       0.34251834
Al       2.83748335       4.24023786       8.15596509
Au       2.83659095       2.03673932       9.56192462
10
Lattice="6.815333366394043 0.0 4.006500244140625 2.2207131263507596 6.460180864385048 3.991425037384033 0.0 0.0 7.788429260253906" Properties=species:S:1:pos:R:3 pbc="T T T"
In       6.53723806       5.36221878      12.42506307
Cl       2.17816144       4.44137049       6.57937045
Cl       5.80799243       6.06604213       9.39137569
Cl       2.39889643       1.30784788       9.42115705
Sn       3.99552954       3.53263263       8.97150717
Cl       5.96064282       1.51467891       7.59685695
Sn       6.20028152       0.23429396       5.23987462
Sn       2.21024427       2.25901245       4.22030834
Cl       2.01957853       4.61100495      10.58287964
Cl       4.88108207       2.74992520      11.47925614
6
Lattice="2.849561929702759 0.0 -0.5735472440719604 -0.36192148367596017 4.471956971823551 -1.7765499353408813 0.0 0.0 7.5341033935546875" Properties=species:S:1:pos:R:3 pbc="T T T"
Au       1.46898860       1.47684804       2.15998039
Pd      -0.14975311       3.65901807       1.49566835
Cu       0.38876859       2.89782679       4.21794484
Pd       0.92707639       2.13122723      -0.58689929
Au       1.99444390       0.66527740       4.82009772
Au       2.16112024       4.31417332      -1.82317645
16
Lattice="7.078713417053223 0.0 4.0115461349487305 2.4093075694474484 6.6555302448089435 4.011713027954102 0.0 0.0 8.257664680480957" Properties=species:S:1:pos:R:3 pbc="T T T"
Ca       7.53668433       3.45604776       5.99655599
S        6.41999519       5.11165673       8.04538645
Pr       2.79336858       0.12880957       6.11385305
Ca       6.33268613       0.13007965       3.98971258
Ca       3.99805414       3.45747310       3.98943084
Pr       6.33092921       0.12764828       8.11878343
S        6.36048767       5.07130197      12.20629281
Sr       2.79292953       0.12943537       1.98434541
S        5.17851590       1.80247266      10.23386941
S        5.19607747       1.81395615       6.00162265
S        2.80025680       5.10138734      10.23625461
S        1.57318045       1.80055878       8.19263616
Pr       3.99687238       3.45658568       8.11909324
S        2.81768481       5.11287341       6.00176262
Pr       7.53668603       3.45727277      10.12641976
S        1.63423614       1.84557457       4.03531343
4
Lattice="2.9673683643341064 0.0 -0.0001204005820909515 -0.0022923253212725797 4.07891924340703 0.0003071286191698164 0.0 0.0 4.046821117401123" Properties=species:S:1:pos:R:3 pbc="T T T"
Ru       2.34359913       0.11720879       1.07230414
Al       0.85962409       2.15844282       1.07263065
Ni       2.34427714       2.15548742       3.09603430
Si       0.86210161       0.11683081       3.09440327
9
Lattice="3.7757408618927 0.0 0.8688780069351196 1.4096584823720095 4.966532926924997 2.459731340408325 0.0 0.0 8.594945907592773" Properties=species:S:1:pos:R:3 pbc="T T T"
Sr       0.96069373       3.04607512       4.51484282
Sr       3.51330174       3.94500127      10.66503022
B        2.02289793       2.16644026       8.52883728
Sr       2.28848139       4.84825033       7.34831555
B        3.24166981       1.16432859       3.27453428
B        3.59321748       0.75805244       1.75829079
B        2.37562331       1.76938369       7.00052118
Rh       4.01858522       1.70933033       8.47739021
Rh       1.59675561       1.20810964       1.79673250
10
Lattice="5.009882926940918 0.0 -1.4037702083587646 5.7065746012501235e-05 6.54359769796284 0.0014334599254652858 0.0 0.0 9.693268775939941" Properties=species:S:1:pos:R:3 pbc="T T T"
Nd       3.69018639       3.71949031       1.66124442
Dy       1.68850454       5.35748535       4.16587281
Nd       2.72465817       5.36093438       7.88777241
Nd       3.69380363       0.44862177       1.66785735
Bi       2.75464499       2.09409358       7.99558645
Bi       4.62870718       5.35932044       5.02722255
Bi       1.58476781       2.08557437       3.79133114
Dy       0.68681800       2.08223553       0.56987171
Bi       0.78810972       5.35737693       0.94101180
Nd       4.65736990       2.08652546       5.13241520
20
Lattice="7.805624008178711 0.0 -3.946685314178467 -2.52527886697905 7.978568049707297 -4.995534896850586 0.0 0.0 9.729680061340332" Properties=species:S:1:pos:R:3 pbc="T T T"
K        1.10733614       6.86433259      -4.22754135
Pt       3.50870059       7.41086817       0.54905044
Bi       2.51204394       2.05240611       2.64379536
Bi       5.65225328       5.56720162       0.90946557
Pt       5.88604366       2.28272872      -4.48472550
Bi       2.53579072       5.56333104       2.48124917
K       -0.69600838       4.14822987       1.91034139
Bi       4.56174285       1.03931424      -2.37305715
Bi       0.56320533       1.03309570      -0.35307551
Bi       1.15287600       2.57357723       5.55331791
Bi       3.93938789       4.20074641      -4.24307686
Pt       4.67347655       3.74888431       2.83823226
K        2.88857154       3.89276894      -0.71177014
Bi       0.76610498       7.09440790      -0.16016355
Pt       4.85365478       0.75759736       3.20689911
Bi       4.57732669       7.11978282      -2.09821439
Bi      -0.57881514       4.19074586      -1.95945385
K        5.24363530       7.44759945      -5.75748655
Pt       1.86251910       0.31145770       6.96880891
Bi       5.82017377       2.02956189       0.97887114
19
Lattice="6.832223892211914 0.0 -1.671819806098938 -2.2121118556651713 6.3981252554299095 -1.7487338781356812 0.0 0.0 7.02440071105957" Properties=species:S:1:pos:R:3 pbc="T T T"
Zn       1.95257361       1.41574546       3.65923767
Zr       5.17833403       2.16850026       1.86197311
Zn       1.57285910       2.92475450       1.74412823
Zn       1.00851399       0.24900777       1.43950191
Zn       4.80886456       5.36377677       0.05660515
Cu       1.07120445       0.26676818       5.67557427
Zn       4.20721382       2.92458766      -1.60170202
Zn       2.91373913       1.44956133       0.08975041
Zn       6.15090204       1.41569999      -1.69531997
Zn       0.01112222       4.50548525       3.15173129
Zn       1.30098430       6.23218877       0.49735287
Zn       2.95470527       6.22220901      -1.59246045
Zn       3.75743581       0.23375821       4.95151266
Cu       2.45340607       4.07422733      -0.27208406
Zn       0.60773391       2.88944762       5.30961109
Zn       5.19485409       4.51568619       3.57721006
Zn       3.33935263       5.37022782       1.92742844
Zn      -0.22967683       4.10158939       0.45082810
Zn       2.51435758       4.09444198       3.96513792
4
Lattice="4.3199639320373535 0.0 0.0032616942189633846 0.017676291591312697 4.317907392280515 0.008392641320824623 0.0 0.0 10.308930397033691" Properties=species:S:1:pos:R:3 pbc="T T T"
Ba       4.20156978       3.84166200       6.95246558
Ba       2.03502946       1.68021892       0.06792564
Ca       2.03408371       1.68283236       4.08011185
Li       4.20442085       3.84433888       2.41201731
4
Lattice="3.341188669204712 0.0 -0.0028005989734083414 -1.6902372753501282 2.8800051255647676 0.00027891009813174605 0.0 0.0 4.903526782989502" Properties=species:S:1:pos:R:3 pbc="T T T"
Fe       0.39053065       1.80239909       3.91607161
Fe       0.39039601       1.80165716       1.46550621
P        2.06617007       0.84405809       0.23911657
P       -1.28634630       2.76057752       2.69195315
5
Lattice="3.464751720428467 0.0 0.0005636353162117302 -0.0027490546177981155 4.927888580287498 0.0009825887391343713 0.0 0.0 4.925126075744629" Properties=species:S:1:pos:R:3 pbc="T T T"
Y        0.38969971       1.25814833       3.26389011
Y        0.38621450       3.72088101       0.80032297
Ge       2.12008136       1.26071960       0.80091452
H        0.38665822       3.72222774       3.26262919
Co       2.11860354       3.72250531       3.26289221
12
Lattice="7.395662784576416 0.0 -1.105061411857605 -3.937683480362125 6.257690735207504 -1.101206660270691 0.0 0.0 8.46517562866211" Properties=species:S:1:pos:R:3 pbc="T T T"
Pr      -0.21359392       5.07407852       5.18841716
Pr      -0.29572588       1.03509915       6.29103591
Pr       3.32681335       2.84961131       5.25013243
Pr       5.51319958       2.05298904       1.91458827
Se       4.33737094       4.67318790       2.99900338
Pr       1.49305606       4.27358595       1.91558873
I        2.60862369       1.54419129      -0.13001261
Pr       1.88639276       0.24189615       2.95773863
Rh       0.71709599       2.59037516       4.10616582
Rh       4.50065705       0.50053664       4.09787092
I       -1.21569788       3.65655209      -0.12932222
I        2.49554123       5.69018924      -1.23264720
4
Lattice="2.8586621284484863 0.0 -0.0030524842441082 0.0009986114640605755 4.639581572828587 -1.6141817569732666 0.0 0.0 4.91110372543335" Properties=species:S:1:pos:R:3 pbc="T T T"
Nb       0.51926357       2.74024147       2.88899380
Rh       1.94849274       2.74261226       0.42819388
Pt       1.94712090       0.41978678       3.69011858
Nb       0.51915046       0.42324523       1.23460417
12
Lattice="3.932506799697876 0.0 -0.82746821641922 -0.5843814337193719 8.424881500133552 -2.7907261848449707 0.0 0.0 9.769189834594727" Properties=species:S:1:pos:R:3 pbc="T T T"
La       1.04634033       2.89985664       8.23631638
La       1.97017245       8.33547154       2.86310217
La       0.85228239       6.40671575       7.31642614
C        2.91452116       4.64604213       7.35846543
La       2.40017663       3.84211506       4.91394916
La       3.85547264       0.96237295       2.07180543
Rh       0.49367887       1.85202782       5.61485513
La       3.42767901       5.45257367       0.03000752
Cl       0.21212995       6.00521056       4.26393061
Cl       3.20504487       0.44100516       8.74548723
Rh       1.40017315       7.44226683       0.15352582
Cl       1.68587671       3.28745395       1.51446302
4
Lattice="4.726051330566406 0.0 2.740710735321045 1.574844008580384 4.450117386736698 2.7381439208984375 0.0 0.0 5.457464694976807" Properties=species:S:1:pos:R:3 pbc="T T T"
Hg       3.91577610       4.27997666       6.30429816
Er       3.91631264       0.94467817       6.30339075
Pb       0.76616916       2.05732960       6.29791994
Ce       2.34121158       3.16906002       3.57227811
4
Lattice="3.7177090644836426 0.0 -1.507856845855713 -0.011513026615115511 3.837162388986587 -0.014754563570022583 0.0 0.0 5.402683734893799" Properties=species:S:1:pos:R:3 pbc="T T T"
Tm       3.58011301       2.45582047      -0.46769631
Fe       0.98215917       2.45867343       3.84090833
Co       1.39542998       0.53530951      -0.52896028
Tm       2.50873110       0.53823309       2.25037284
10
Lattice="4.046197414398193 0.0 0.000916759658139199 -0.0006395833102950089 4.042212912504883 -0.00015003804583102465 0.0 0.0 12.41765022277832" Properties=species:S:1:pos:R:3 pbc="T T T"
Pt       0.17631118       2.57262036       6.96841779
Pr       2.19768232       2.57258591       3.83245028
Pt       2.19768039       2.57407464      11.37124946
Pt       0.17438711       0.55245475       5.11501549
Pr       0.17524697       0.55239187      10.11791056
Pt       2.19740556       0.55231387       0.76829058
Au       2.19863259       0.55265365       6.97222162
Pt       2.19748242       2.57390093       8.83908133
Pt       0.17445885       0.55214985       2.57021362
Pt       0.17377647       2.57333594       0.76847425
6
Lattice="3.504030227661133 0.0 0.009487802162766457 -1.737266521637793 4.2933139824092414 -0.012494614347815514 0.0 0.0 5.526960372924805" Properties=species:S:1:pos:R:3 pbc="T T T"
Au       1.76968087       1.73949257       2.43657355
Pd       1.77455082       4.23452293       1.04803809
Be       0.01943912       3.40974256       2.42444654
Pd       1.77630989       4.23348218       3.81224959
Au       0.01421317       2.43407297       5.19098379
Be       1.76423743       0.76819518       5.19955824
12
Lattice="3.992424964904785 0.0 -0.6483321189880371 -0.1057032903028777 3.989160811073867 -0.6465656757354736 0.0 0.0 12.6318359375" Properties=species:S:1:pos:R:3 pbc="T T T"
Pt       1.83724650       1.25974172       8.65343482
Pt       2.86159561       0.26274199       2.33721926
Pt       0.43853915       3.92510038       0.03599727
Pt       3.49614122       0.91004380       6.24938294
Pt       3.12950061       2.58419727       3.98699023
Zr       1.46682200       2.92854656       6.37210371
Zr       0.81204855       2.25586672       2.33201089
Zr       0.15803277       1.58964145      10.93814617
Pt       2.48751038       1.93207489       0.03538161
Pt       1.18743006       0.59208102       4.63108651
Pt       3.77906277       3.25841003       8.00706619
Pt       2.12075870       3.60324461      10.41337180
8
Lattice="4.867891788482666 0.0 -0.0007075959583744407 0.00048157988814250246 4.875859713613851 -0.00042219902388751507 0.0 0.0 9.103137016296387" Properties=species:S:1:pos:R:3 pbc="T T T"
Ho       3.47419699       2.55330928       2.48631152
Er       1.03754185       0.11599172       2.47953359
In       1.03897670       2.55265538       0.32351052
In       3.47246381       0.11673572       0.32253667
Ho       3.47274857       2.55332207       7.26298586
Er       1.03836780       0.11636289       7.26970692
In       3.47221107       0.11659265       4.87152535
Er       1.03876636       2.55438169       4.87480853
16
Lattice="7.116604328155518 0.0 4.007456302642822 2.432179301750352 6.688506533593222 4.005705833435059 0.0 0.0 8.32801342010498" Properties=species:S:1:pos:R:3 pbc="T T T"
Pr       5.66588623       0.52302281       8.38292313
Pr       3.32283642       3.86598195       8.38210480
Se       2.20577223       5.61138022       6.14711438
Tm       2.10752243       0.52186702       2.21603766
Li       5.66459927       0.52186568       4.21845170
Se       0.83293262       2.12031399       8.58537688
Pr       2.10891592       0.52190041       6.37978306
Se       4.44031765       2.12191563      10.61703896
Pr       6.88200325       3.86626182      10.38771084
Tm       6.88202128       3.86677450       6.22266855
Se       5.81419595       5.61065425       8.18006667
Se       4.58041746       2.21964981       6.14783282
Se       5.64396013       5.49097589      12.58551901
Tm       3.32370145       3.86597119       4.21871647
Se       1.00256146       2.24167372       4.17978452
Se       2.06735280       5.51195091      10.61678779
10
Lattice="5.125268936157227 0.0 0.694523811340332 1.665729357564487 4.569007537522947 1.7000494003295898 0.0 0.0 7.8270087242126465" Properties=species:S:1:pos:R:3 pbc="T T T"
Cd       2.24044521       3.92336963       6.35665599
Au       1.90620200       3.01686237       1.28285779
Cd       4.29768546       2.53783301       3.07484985
Au       3.64116436       0.72524721       0.79524436
Au       3.95362857       1.60768034       5.91196089
Li       1.22686460       1.14406005       7.00912575
Au       1.56874579       2.07035169       4.18410182
Au       0.91029090       0.27925711       1.83369336
Au       4.63147164       3.45624154       8.09944644
Au       4.96791117       4.36834417       5.31080797
8
Lattice="4.464353561401367 0.0 -0.03496275842189789 -0.07833939499278127 6.16275588899945 -0.06137395277619362 0.0 0.0 6.784651756286621" Properties=species:S:1:pos:R:3 pbc="T T T"
Zn       3.58475786       6.01131905       6.68724450
Sr       1.37524681       4.32624265       1.91362652
Zn       1.41598364       1.26468090       3.36362692
Sr       3.62698161       2.95042887       5.30377271
Ag       1.35998832       5.56408953       5.28984770
Zn       3.58436838       6.01394949       3.85026663
Ag       3.64148355       1.71366341       1.92610691
Zn       1.41452038       1.27101310       0.52794877
10
Lattice="4.572738170623779 0.0 0.0022331278305500746 -0.0007571631122959343 4.572196897755508 -0.0013393837725743651 0.0 0.0 10.6334228515625" Properties=species:S:1:pos:R:3 pbc="T T T"
Pr       4.23030507       0.45924813       0.16339524
Sb       1.94311531       0.45928182       8.10917127
Pr       1.94194822       2.74542758       5.42270757
Ir       1.94366226       2.74667002       9.39785650
Li       1.94293079       0.45929667       2.79214728
Sb       1.94389592       2.74536926       1.38278257
Sb       4.22896839       0.45965872       4.20504794
Ir       4.22839364       0.45922387       6.82393098
Sb       4.22974951       2.74592167       8.11061843
Ir       4.23082380       2.74664277       2.79267236
9
Lattice="5.569940090179443 0.0 -0.00846477597951889 -2.7744520399974992 4.824721906862736 -0.0026998913381248713 0.0 0.0 7.60772180557251" Properties=species:S:1:pos:R:3 pbc="T T T"
Ag       0.92594727       1.64981667       6.37856077
Hg       2.78055358       1.65103111       1.18755385
Ag       3.70668398       0.04153474       6.37346566
Hg       1.85192801       0.04546306       3.95648482
Hg      -0.00824477       0.03955258       1.19724174
Ag      -1.85840582       3.26188700       6.38004689
Hg      -0.93090970       1.65226035       3.96094588
Hg       1.85867833       3.26201066       3.94961447
Hg      -0.00235840       3.25484542       1.19046927
8
Lattice="4.097898960113525 0.0 0.002090633846819401 0.0014173728824907164 4.097032301826215 -0.0003967634111177176 0.0 0.0 9.135161399841309" Properties=species:S:1:pos:R:3 pbc="T T T"
Cd       0.17853447       2.91164818       2.24422480
Tb       0.17484329       0.86547429       5.76070857
Cd       2.22544956       0.86440328       2.24386510
Tb       2.22792379       2.91598277       7.87096756
As       2.22762546       2.91428019       4.11852740
O        0.17738669       2.91600768       6.81439181
O        2.22591037       0.86694030       6.81494637
As       0.17631606       0.86564407       0.37830365
12
Lattice="7.938302516937256 0.0 -2.427985429763794 -4.334040899222998 6.641531543436488 -2.444777250289917 0.0 0.0 8.301977157592773" Properties=species:S:1:pos:R:3 pbc="T T T"
Br       6.90351701       0.00518559       5.54261410
Ce       2.51517129       3.64759601       3.18162580
Br       0.81583225       3.44817053       5.46350535
Ce       5.57107375       1.98883658      -0.96332068
Br       0.12278047       3.67143943       1.39166151
Na      -0.47906529       5.44929361      -1.08134836
Na       0.79058835       0.47370806       5.50053380
Br       2.54817063       0.79453647       3.12694158
Br       4.28158318       4.01848022       0.78512037
Br       6.33155853       0.46061498       1.32313042
Br       4.92037442       3.67496778      -3.36408607
Br       3.16223188       0.45348286      -1.02279440
12
Lattice="4.867416858673096 0.0 -0.008949283510446548 -0.03564847087221754 5.392705870352614 0.0025866921059787273 0.0 0.0 5.656345367431641" Properties=species:S:1:pos:R:3 pbc="T T T"
Os       2.68131749       3.37228746       4.38642461
Os       0.25047253       3.37175903       1.56438537
Tm       2.70266892       0.67055041       2.55144161
O        3.92721286       4.14233326       0.08250325
O        1.44714009       2.58833162       0.09119193
Tm       0.26721218       0.66993752       5.37751165
O        3.64178422       1.70753781       4.23106833
O        1.49912029       2.59925768       2.91266679
O        3.86427073       4.14885283       2.91064577
O        1.72145327       5.03680665       4.23818110
O        4.18735851       1.70708652       1.40224381
O        1.17994186       5.03477360       1.41020044
12
Lattice="7.424928188323975 0.0 -0.06292947381734848 -3.5225904433536934 5.952435940548282 -3.981309652328491 0.0 0.0 7.949333190917969" Properties=species:S:1:pos:R:3 pbc="T T T"
Br       5.14682796       1.56868758       3.81945313
Li       1.77687669       4.56665879       4.18885949
C        3.53685143       1.59207464       2.20210763
Br       3.77965660       5.04361388       2.51338170
Mn      -1.93669307       4.57182741       4.22181907
Li      -0.17210219       1.59215393       2.23919725
Br       1.93298146       1.61705063       0.58744486
Br      -0.26204223       4.46305431       2.41695762
Br       3.81319777       4.67401590      -1.98861320
Br      -0.22182785       4.10216437      -2.07632074
Br       5.07332570       1.50351852       0.58053691
Br       2.00289898       1.68067616       3.82763665
13
Lattice="4.948276042938232 0.0 2.237489938735962 2.4809743275596934 6.0256411777005 1.1257400512695312 0.0 0.0 6.632657051086426" Properties=species:S:1:pos:R:3 pbc="T T T"
Pd       6.18220700       5.83125758       9.07513371
Cu       2.11328551       3.68836288       1.55811653
Cu       2.82611646       1.94935512       6.59384757
Cu       1.77674461       1.13264191       2.29790972
Pd       4.94368922       2.81894933       5.19541405
Cu       3.16415882       4.50209159       5.85741186
Pr       6.18702944       5.83166558       5.75961224
Cu       0.68295174       1.13679519       4.73215354
Pd       2.46770314       2.81995658       4.07762002
Cu       4.58563859       1.95198792       2.67353805
Pd       3.71063527       5.83204844       7.95567656
Cu       4.25320937       4.49892455       3.41869627
Cu       5.29987454       3.68821347       7.71536784
3
Lattice="3.748014211654663 0.0 -1.2883855104446411 -0.44649945139684466 3.730504440762007 -1.2994349002838135 0.0 0.0 6.092448711395264" Properties=species:S:1:pos:R:3 pbc="T T T"
Sr       3.05755482       1.78097063       2.76072137
Li       2.09534179       0.69486566      -0.04010248
Hg       0.35618385       2.96381260       1.00034422
10
Lattice="4.600408554077148 0.0 -0.7967419624328613 -0.015002682823270221 4.7341352207460154 -0.011242194101214409 0.0 0.0 14.233516693115234" Properties=species:S:1:pos:R:3 pbc="T T T"
Pb       1.68540488       1.84080769      -0.02788822
Pr       4.49120315       1.84170134       2.58911854
Bi       2.61125116       1.84189054       5.51198239
Bi       0.30242695       4.20578155       5.89220699
Pb       3.98737771       4.20858328      -0.39158741
Bi       0.81654863       1.84247338       8.96605091
Bi       2.09568555       4.20788235       2.47250014
Pb       1.22561649       4.21019310      11.45388734
Pb       3.52668257       1.84111018      11.01882886
Pr       3.01906382       4.20650307       8.02308527
4
Lattice="3.424798011779785 0.0 0.0014512422494590282 0.0004212362446689176 3.4249760845545474 -0.0020015824120491743 0.0 0.0 7.9427595138549805" Properties=species:S:1:pos:R:3 pbc="T T T"
Rh       1.52286468       1.14184715       0.76049223
Y        3.23511425       2.85548034       2.50388776
Hg       1.52287376       1.14263903       4.73184359
Y        3.23551185       2.85504429       6.95829673
4
Lattice="3.6913158893585205 0.0 -0.011211073026061058 0.004059103136232945 3.689673336773867 -0.008136401884257793 0.0 0.0 7.443698406219482" Properties=species:S:1:pos:R:3 pbc="T T T"
Sr       1.47789690       0.18961605       6.68244651
Zn       3.32501496       2.03552811       1.40451361
Ho       1.47916937       0.19280089       2.96056092
Zn       3.32637797       2.03571702       4.50136262
4
Lattice="5.047086238861084 0.0 0.017355920746922493 0.019536744210781547 5.014797778838424 0.01663225144147873 0.0 0.0 5.018421173095703" Properties=species:S:1:pos:R:3 pbc="T T T"
Lu       2.62097712       0.55420910       2.98192286
Pr       2.63399698       3.06302995       0.47960394
Tm       0.10907197       3.06232125       2.97771444
Tm       0.09921107       0.55566305       0.46290487
16
Lattice="7.421266555786133 0.0 -4.268043041229248 -4.963725448810692 7.005189362035205 -0.06604647636413574 0.0 0.0 8.582013130187988" Properties=species:S:1:pos:R:3 pbc="T T T"
Na      -3.37061664       5.77437085      -0.35980354
Na      -0.88711937       2.27378079       3.96636875
Se       4.06409934       0.52425132      -0.15846620
Se       1.62996307       4.03374170      -0.25864734
Na      -0.88853016       2.27361231      -0.32657882
Ce       2.82253086       2.27229830       1.83286878
Na       2.82192771       2.27425136      -2.46070760
Se       0.30749752       0.38390604       6.04517680
Pb       0.33870150       5.77450530      -2.49362081
Se       1.58165075       4.02107682       3.82175984
Se      -2.24315267       4.02403135       6.02281099
Ce      -3.36951268       5.77598507       3.93166450
Se      -2.08299317       4.16172787       1.88710844
Ce       0.34301958       5.77440550       1.79752659
Se       0.46792269       0.52150473       1.90760950
Se       4.01367999       0.51202115       3.91946472
9
Lattice="5.8132500648498535 0.0 0.0017190626822412014 -2.8900404706426612 5.0455557517866065 -0.0011079212417826056 0.0 0.0 5.628702163696289" Properties=species:S:1:pos:R:3 pbc="T T T"
Ga       3.89631839       1.45655759       2.57885661
Ga      -2.03506117       4.73664252       4.67990129
Ho      -0.52216651       2.25334590       5.53043971
Ga       1.00216322       4.73846860       4.68093389
Ho       2.38397265       3.94162570       1.72238467
Mn       2.37676616       0.57102444       0.81679302
Ga       0.86326698       1.45440911       2.57865595
Ga      -0.52164705       3.86366314       2.57401982
Ga       2.38401778       2.32755780       4.68848080
4
Lattice="3.679872751235962 0.0 0.9890748262405396 1.7101767620996777 3.257953665197562 0.9864382743835449 0.0 0.0 7.331151008605957" Properties=species:S:1:pos:R:3 pbc="T T T"
Ce       3.97343471       1.80051364       6.44248818
Er       3.02452291       1.22775249       2.63067403
S        1.68304323       0.41530199       7.62324568
S        2.53468423       3.15631835       4.46707954
7
Lattice="4.740750789642334 0.0 -1.332302451133728 -0.3365282124327005 4.725708836175961 -1.343035101890564 0.0 0.0 8.849781036376953" Properties=species:S:1:pos:R:3 pbc="T T T"
Rb       4.11091981       0.84977633       2.05260447
Ni       2.19455309       3.88399479       4.17471309
Rb       0.61531101       2.19181213       7.64101017
Cl       1.53223167       3.17368120       1.92546446
Cl       2.85749990       4.59472217       6.42976920
Cl       2.36333958       1.52313364       4.84825733
Cl      -0.17385367       3.88465447       4.84138638
9
Lattice="4.6110029220581055 0.0 0.0005808042478747666 0.0023669543706924387 6.632348591922581 -3.8280696868896484 0.0 0.0 7.653347492218018" Properties=species:S:1:pos:R:3 pbc="T T T"
Nd       3.40915045       4.22130922      -0.05676745
Nd       1.10480656       5.15804317       2.51700710
Nd       1.10360268       6.40536169      -1.31389423
Os       1.10252407       2.46137926       0.95975242
Nd       3.40575062       0.70394667      -0.05081380
Nd       1.10214287       2.46139468       5.50777802
Nd       3.40731959       2.46189752       2.99174370
Os       3.40821186       0.25442060       4.78858773
Os       3.40892947       4.67718136       4.78880685
4
Lattice="3.7542648315429688 0.0 2.164532423019409 1.2497255558795497 3.538390673554894 2.1640312671661377 0.0 0.0 4.334204196929932" Properties=species:S:1:pos:R:3 pbc="T T T"
Fe       2.09706975       2.52989082       2.80064000
Sc       3.34827081       3.41485609       4.96669276
Mn       0.84652841       1.64592027       4.97223049
Rh       3.34911823       0.76132440       4.96581606
18
Lattice="7.457162857055664 0.0 1.308364987373352 1.6932108098908147 7.207225202222963 2.722144842147827 0.0 0.0 8.254233360290527" Properties=species:S:1:pos:R:3 pbc="T T T"
As       5.27036468       5.79188478       4.31155979
La       2.79374202       6.64676960       6.06065852
As       6.79048037       1.26655525       6.33864175
La       3.73591180       4.48713435       2.16834792
P        2.21921308       1.93229269       2.18303007
La       7.60486841       5.58546490       9.84250761
P        6.02451562       2.85868671       9.69944053
La       2.30644910       3.12914985       5.37277262
La       0.62136851       1.01312641       7.88978024
O        3.81444187       3.31906297       7.08225094
H        4.49487714       2.90892700       4.14380062
As       8.69791443       5.71816901       4.78470689
La       7.08941635       3.23660409       4.05445212
As       4.73548926       6.81332623       8.53223536
La       5.93525500       4.26395209       7.08872669
O        1.16644790       4.86086693       6.70505702
La       4.78198223       0.68031859       3.42488960
La       4.14874332       1.28601541       8.11694071
12
Lattice="6.6121320724487305 0.0 1.1292686462402344 3.01996534908777 5.550498778681308 2.2487306594848633 0.0 0.0 6.705255031585693" Properties=species:S:1:pos:R:3 pbc="T T T"
Nd       7.35385243       3.84870607       5.88838469
Y        5.72903065       4.73368212       2.53450217
S        1.75759558       1.44887575       5.82659939
Y        2.36802614       2.96344781       1.40833753
Y        5.84390615       1.07384591       1.41133347
Sc       4.15236208       1.99057985       4.76086095
S        3.32128112       0.70046454       2.57352194
S        8.17587038       5.35631819       8.09312632
S        4.78763706       3.39634575       6.95308856
S        6.53332213       2.34185934       3.68469963
S        3.30937049       4.30146803       3.69617844
Sc       0.92365810       0.15466894       3.63856658
12
Lattice="5.478764057159424 0.0 -1.3465338945388794 -0.3376826118971934 5.500146518999543 -1.36174476146698 0.0 0.0 11.89688777923584" Properties=species:S:1:pos:R:3 pbc="T T T"
Rb       4.99217015       4.54684246       9.23108434
Cl       0.38458172       1.92042108       2.29090014
Na       1.86410958       0.60086065       8.31252166
Ca       0.99490243       2.58577764       4.77400104
Cl       0.84166856       5.34625357       4.16324872
Na       3.03533864       1.86916288       1.24512936
Cl       2.47324766       0.87802347      10.81483673
Cl       4.51547953       0.47354514       7.28033273
Cl       3.72043806       2.56786641       4.05369166
Ca       3.56608457       5.33575828       3.43434918
Cl       1.60248508       3.22267817       7.24741557
Cl       2.96361319       4.68838426       0.96980853
16
Lattice="6.381593704223633 0.0 1.6792683601379395 3.191402477929998 7.252340883396131 0.836147665977478 0.0 0.0 12.858595848083496" Properties=species:S:1:pos:R:3 pbc="T T T"
Rb       0.92671223       2.00510833       0.72826036
Rb       7.30835634       5.62250016       8.83139261
Rb       5.00050993       2.00155201      11.08671240
Se       0.99782533       0.54265492       6.77799983
Sc       6.15445657       5.62882605      13.17255134
As       2.95989341       2.00129805       5.90572099
Rb       5.00193840       5.62712116       4.65751324
As       2.96344240       5.62618356      12.33169403
Sc       6.15210207       1.99858792       6.74471405
Se       4.92608547       7.09176868      11.46072031
Se       4.24319125       4.16269757       1.20468452
Se       4.24105202       3.46222672       7.63589423
Se       1.67721843       3.46609384       4.17893680
Se       8.06248492       4.16830545      12.28158768
Se       4.93036083       0.53923315       5.03673171
Se       7.37523582       7.08790934       2.02121341
12
Lattice="3.89125394821167 0.0 0.008784219622612 0.011041349232936237 8.321685141816838 -2.9390041828155518 0.0 0.0 9.589960098266602" Properties=species:S:1:pos:R:3 pbc="T T T"
Hf       0.85107600       8.14377638       3.89792551
Se       0.85143037       6.99723931       1.39012691
In       2.78814650       0.74941596       2.64646709
Hf       2.79298887       5.16188619       2.03073920
Mn       0.84231794       3.12706916       0.50996577
Se       2.79187247       4.35456218      -0.55192442
In       0.84431193       4.23763898       6.22214683
Se       2.78776683       1.46910027       5.89023725
Se       2.79157937       6.30842971       4.53978068
Mn       2.78919328       1.86035121       8.36032366
Se       0.83847207       0.62972886      -0.17582875
Se       0.84538545       3.50812546       2.98272511
12
Lattice="5.070730686187744 0.0 -0.00023234127729665488 -2.524966438234032 7.658196059145737 -0.0016364326002076268 0.0 0.0 10.173348426818848" Properties=species:S:1:pos:R:3 pbc="T T T"
Sm       2.28192896       3.69192077       1.38080860
La       2.28492208       6.26461267       3.92731439
Sm       2.27929820       1.17597191       8.99965982
Tm       2.27830168       1.17193586       3.93127859
Sm      -0.25412877       3.66313089       3.93495926
Ho       2.28174610       3.68863628       6.46552255
Sm      -0.25698728       1.15373493       6.46918645
Sm      -0.25694684       1.13893990       1.37808785
La       2.28554525       6.22417680       9.00155948
Er      -0.25043546       6.24297855       1.37761167
Er      -0.24925764       6.23251822       6.46552159
Tm      -0.25261310       3.66620153       8.99586918
12
Lattice="4.0920023918151855 0.0 -0.003243105486035347 -0.0066274844532034196 6.976762961621305 -0.0013393344124779105 0.0 0.0 7.759293556213379" Properties=species:S:1:pos:R:3 pbc="T T T"
Ga       2.25010311       0.44646368       5.83553478
Y        0.20238680       2.59695170       7.27541393
Ga       2.24788294       2.89455336       4.83189262
Y        0.20374929       0.74374243       3.39637736
Ga       2.24550845       5.47017957       3.39374445
Ga       2.24745959       2.89397575       1.95330645
Ga       0.20010314       5.15755043       5.33494069
Ga       0.20033882       5.15756997       1.45615060
Ga       2.25099228       0.44655865       0.95376981
Ga       2.24614678       4.84673729       7.27433780
Os       0.19909921       6.57225731       7.27838917
Os       0.20058287       3.74228548       3.39748429
15
Lattice="8.099111557006836 0.0 3.800053596496582 3.1551474533868022 7.4679199950046815 3.7993712425231934 0.0 0.0 10.515616416931152" Properties=species:S:1:pos:R:3 pbc="T T T"
Cs       1.85197012       0.12879878       4.56131866
Te       8.43626520       1.81134867      11.48520795
Sn       5.90132367       0.12760172      11.71680610
Cs       5.90332975       0.13583258       6.45721630
Tb       7.47972028       3.86281012      13.61784336
Tb       1.85232963       0.12673033       9.81744230
Te       6.52192429       5.91474795       5.23651988
Te      10.04509822       5.61319022      13.41972486
Tb       3.43076406       3.86416151      11.71537484
Te       8.93779760       2.14235161       5.25716204
Cs       7.47438005       3.86397990       8.35887215
Te       4.91440039       2.11088321       3.30077412
Te       6.02330303       5.58195329      11.46241804
Te       4.46081994       1.81186123       9.61461629
Te      10.49515231       5.91218672       7.09981026
5
Lattice="4.707469463348389 0.0 -0.0034620894584804773 0.000776259610303974 4.707414563072018 -0.004838032182306051 0.0 0.0 4.773758888244629" Properties=species:S:1:pos:R:3 pbc="T T T"
Ho       1.68981723       3.30516293       4.20979038
N        1.69150116       3.30339637       1.82311468
Er       1.68768334       0.94922928       1.82519282
Er       4.04429664       3.30432875       1.82174658
Ag       4.04308182       0.95014532       4.20971777
9
Lattice="6.819053649902344 0.0 -2.003653049468994 -1.7554036022499424 6.159799966579463 -1.5235480070114136 0.0 0.0 6.544613361358643" Properties=species:S:1:pos:R:3 pbc="T T T"
Cl       3.00336853       3.87043406       2.95976440
Cl      -0.45496562       5.05218108      -0.55454477
Cl       3.35461922       5.82714751      -0.62333026
Cl       2.09631854       0.43692028       2.83441076
In       4.01829038       1.82412672       1.77140491
In       4.44745922       3.66800369      -1.49165304
Cl       5.45775553       1.62111075       3.86175315
Cl       5.81453852       3.25819814       0.59958191
Cl       2.65476202       2.23579704      -0.32013396
7
Lattice="4.813727855682373 0.0 -1.3768614530563354 -0.38307152945186856 4.797412396023934 -1.371551275253296 0.0 0.0 9.09434986114502" Properties=species:S:1:pos:R:3 pbc="T T T"
K        0.44806873       2.55132354       5.67540899
K        3.70579939       0.86914535      -1.11503237
Se       2.43150431       4.70131984       3.49390061
Se       1.33326906       3.51796696      -0.30462823
Sr       2.07561302       1.71032770       2.27922957
Sr       4.29004259       4.11035927       0.90691517
O        4.48128991       1.71165421       1.58915087
5
Lattice="3.813917398452759 0.0 -1.3561162948608398 -0.42440836014316097 5.531272833551914 -1.1999493837356567 0.0 0.0 6.043768882751465" Properties=species:S:1:pos:R:3 pbc="T T T"
Dy      -0.19095574       4.73306574      -0.60138324
Nd       1.38690735       1.52911465       3.84132314
Dy       2.54052985       3.85867795       1.04225184
Ru       2.49221843       0.91738706       0.91034862
Ru       0.28573298       2.13768184       0.74049807
18
Lattice="7.203404426574707 0.0 0.0013727667974308133 -3.6000705111187434 6.236269733619321 0.000525886018294841 0.0 0.0 13.262494087219238" Properties=species:S:1:pos:R:3 pbc="T T T"
Ca       2.83568199       5.56224348       7.20161157
Sm      -0.76353620       3.48224774       3.88408527
Br       4.07837003       3.46832049       2.23021406
Ag       2.83261719       1.40359751       3.87799634
Br       4.02908378       3.43876801       8.86221434
Br      -1.93532146       5.53411205       5.53589982
Br       0.39669213       5.53467407       2.22937133
Ag      -0.76670698       3.48517943      10.51775756
Sm       2.83498151       1.40368551      10.51767420
Br       0.47403568       1.42276997       8.86064309
Br       0.42656258       1.45057393       2.23003528
Br       5.19516204       1.42343226      12.17165583
Br       1.59396786       3.46644632       5.53530378
Ca       2.83661280       5.56048752       0.56945795
Br       5.23927027       1.44751437       5.53599227
Br      -1.93299305       5.59116294      12.16894138
Br       0.39826948       5.59004409       8.86117370
Br       1.63795589       3.43950845      12.16935157
7
Lattice="3.772245407104492 0.0 -1.1083128452301025 -0.0030667407002875047 3.9198069496744683 0.0008661611936986446 0.0 0.0 6.9596991539001465" Properties=species:S:1:pos:R:3 pbc="T T T"
Lu       0.80167552       0.39142546       2.93045796
Fe       1.53671077       2.34964974       5.43077411
Fe       1.95051736       0.39031115      -0.13674918
Fe       0.06496846       2.35092097       0.43519094
Ge       2.33451297       2.34993969       1.18045764
Fe       3.42975221       0.39013498       4.89472743
Ge       3.03950063       2.35094527       3.57662292
8
Lattice="4.00393533706665 0.0 0.0025390947703272104 0.001086449711878069 6.535744576751884 -2.289105176925659 0.0 0.0 6.922657012939453" Properties=species:S:1:pos:R:3 pbc="T T T"
Dy       3.11503168       1.80935632       1.19793332
Er       1.11302140       1.80858557       4.65914191
Y        3.11606527       5.07683379       3.51511479
Dy       1.11343982       5.07793352       0.05160794
P        1.11362467       3.43633354       2.36273944
P        1.11278273       0.18257735       0.03325152
P        3.11485075       0.18689496       3.50776303
P        3.11527798       3.43168686      -1.11068097
11
Lattice="3.821561336517334 0.0 -0.984070897102356 -0.0661636977864159 6.328263596377454 -0.24378551542758942 0.0 0.0 7.902019500732422" Properties=species:S:1:pos:R:3 pbc="T T T"
Rh       3.09752930       3.18044732       1.58487656
Sc       2.48636958       2.00127920       7.12729313
Rh       1.60279468       3.11682414       3.69128790
Rh       0.12810477       2.58985087       5.88243162
Rh       2.17258787       4.45906676       5.90697314
Rh       3.62128012       4.86555920       3.62494839
Pb       1.75497464       0.48910210       4.27868387
Rh       0.70980621       3.89409630       0.23900719
Pb       2.89142274       5.75996025       0.79446958
Rh       1.05158292       1.47976422       1.54866678
Rh       0.44248759       0.02456545       7.09962805
4
Lattice="3.8093087673187256 0.0 -1.0970933437347412 -0.6910413305247904 5.303804289687936 -2.404864549636841 0.0 0.0 7.156285285949707" Properties=species:S:1:pos:R:3 pbc="T T T"
Cl       1.72794182       2.51492811       2.19536258
Cl       2.64697663       4.06857849      -1.77433638
I        0.63060331       0.63911125       5.53689328
Sn       0.28207311       3.29011037       4.33650306
6
Lattice="4.586865425109863 0.0 0.009110542014241219 -2.2911325789795147 5.203239239313021 -1.9211852550506592 0.0 0.0 9.944188117980957" Properties=species:S:1:pos:R:3 pbc="T T T"
Sr       0.56491573       1.11601974       7.80756173
Bi       2.84462315       3.74657989       2.89512909
Sr       0.55724275       4.88784395      -0.21408681
Bi       2.84887320       0.68949383       5.12894489
Te       2.85839648       3.50178920       7.64073146
Te       0.54829972       2.00216049       1.20289484
10
Lattice="5.272403240203857 0.0 0.0018344179261475801 0.004958260188711014 5.2704473060847095 -0.00015353229537140578 0.0 0.0 13.735342025756836" Properties=species:S:1:pos:R:3 pbc="T T T"
In       0.99229789       0.53250046      11.46908525
Bi       3.63118637       0.53294003       9.73941432
Cs       0.99599770       3.16598765       8.00495314
Bi       0.99640726       3.17049843      13.19417993
In       3.63032691       0.53198790       6.29202963
In       3.63150823       3.16729543      11.46676410
Cs       3.62680274       0.52991813       1.18959737
Cd       3.63042312       3.16666054       4.60221767
In       0.99451457       3.16809775       2.91901050
Bi       0.99305552       0.53070211       4.60718018
15
Lattice="7.458230972290039 0.0 3.8012397289276123 2.737263221121168 6.9388708208912675 3.796555995941162 0.0 0.0 9.142370223999023" Properties=species:S:1:pos:R:3 pbc="T T T"
La       4.60263164       2.95790655      10.22955494
La       9.72173209       6.39437727      14.02917084
La       5.99763055       6.41992631      12.13372011
Br       1.89483046       1.08770601       1.83154093
La       9.38241696       6.16013498      10.17475182
La       7.98472110       2.69481871       8.27304341
Ru       3.26288622       4.55696916       8.30140518
La       8.36591698       2.95605533      12.15539423
Ir       5.62293812       1.08735063       8.30669329
La       4.26029493       2.72489593       6.37604958
Br       6.99198518       4.55840266       5.63239660
Br       5.62172292       1.08996555       3.73356727
Ir       6.99191647       4.55901394      10.20298735
Ir       1.89466336       1.08757852       6.40498851
La       5.61609322       6.15786810       8.25008917
10
Lattice="5.452479362487793 0.0 0.0030845962464809418 0.002833145164668003 9.57324749031975 0.010242036543786526 0.0 0.0 9.563299179077148" Properties=species:S:1:pos:R:3 pbc="T T T"
Rb       3.26008730       9.53194388       8.96363677
Cs       0.53182557       7.93735536       5.78229631
Cs       0.53028676       3.14563978       1.00153871
Rb       3.25752993       6.34401192       2.60545540
Sb       0.53131498       4.15821778       4.77842934
Rb       3.25649614       4.74403284       7.38379430
Rb       3.25504386       1.54987737       4.17506681
Sb       0.53239900       6.92889004       9.56053125
Sb       0.52814424       2.14248526       6.77992972
Sb       0.53086629       8.94443925       2.00081826
4
Lattice="3.6221923828125 0.0 -0.0005757464095950127 -5.913319333192096e-05 3.622842549795114 0.0012095277197659016 0.0 0.0 7.002509117126465" Properties=species:S:1:pos:R:3 pbc="T T T"
Tm       0.20855571       1.31603865       6.06356611
Tm       0.20909611       1.31502428       2.37708301
Au       2.02197380       3.12552641       0.72002421
Li       2.02068788       3.12692439       4.22240632
12
Lattice="4.9774322509765625 0.0 -0.005281088873744011 0.022644218457025134 7.052859671633274 -3.489515781402588 0.0 0.0 10.543310165405273" Properties=species:S:1:pos:R:3 pbc="T T T"
Tb       2.42320629       5.78118117       6.53609390
Sc       4.90384146       3.98427212       8.29490681
Sm       4.88928075       0.46604485       4.76378002
Tb       2.40894374       2.24239585       2.98314100
Tb       2.40963254       2.28732388       6.58821603
Tm       4.90249895       4.01484448       4.79419877
Tb       4.88834551       0.43958344       1.22853171
Tb       2.41868218       5.67406627      -0.52090366
Sc       2.40930954       2.24632286      -0.52317979
Tb       4.90131086       3.95176388       1.20076689
Tm       2.42097058       5.75809751       3.03124002
Tb       4.89338176       0.54145639       8.29943713
18
Lattice="5.757862567901611 0.0 -0.0038399219047278166 -2.880284956502237 4.99130678546862 0.0003665912663564086 0.0 0.0 9.581090927124023" Properties=species:S:1:pos:R:3 pbc="T T T"
Nd       0.46054628       1.30309957       2.50225618
O       -1.57383370       4.35452039       1.39943974
Nd       0.46118752       4.63002526       0.10146406
Te       3.33984445       2.96650961       2.49638925
O        2.49728323       4.35397447       3.59664741
Nd       0.46121927       4.63063157       4.89181316
Nd       3.33957007       2.96585093       7.28645739
Te       0.46113271       1.30060499       7.28959686
O        1.71770393       3.00277845       1.39799548
O        4.11734701       1.54030899       1.39679345
O       -0.79355651       3.00275643       3.59904268
O       -1.57878019       4.90411251       6.18973598
O        4.59786065       1.27078724       6.18673790
O        1.24313789       2.72487420       6.19073187
O        2.08233584       1.26542040       8.38536896
O       -0.31638853       2.72827856       8.38651143
O        2.56227405       1.54280907       3.59531707
O        2.49295795       4.90060314       8.38259826
8
Lattice="6.052384853363037 0.0 3.9973297119140625 3.0238620393646443 5.51564207139354 2.0216848850250244 0.0 0.0 6.59747838973999" Properties=species:S:1:pos:R:3 pbc="T T T"
Se       7.36171837       2.96142803       8.87681955
Au       1.81776989       2.96863473       7.38685877
Au       4.83998537       2.96358304       9.38877196
Se       3.31556222       4.77693658       8.38756522
Tl       3.33116143       0.21214603       5.07637166
Tl       0.30250637       0.20445835       3.07898047
Se       3.31905191       1.14349850       8.36957362
Se       5.37178132       2.97184505       5.31465730
6
Lattice="4.225809574127197 0.0 -1.4387764930725098 -0.001927858078070373 4.348783542560045 -0.007310372777283192 0.0 0.0 6.945551872253418" Properties=species:S:1:pos:R:3 pbc="T T T"
Li       3.14888504       4.09430042       1.33053335
Li       2.17108067       4.09393053       5.37285391
Sm       1.11747503       1.92088068       2.28499791
Ru       2.66383771       1.91887117      -0.11089137
Sm       4.21237573       1.91802395       4.44032660
Ru       0.54617271       4.09350129       0.60575784
4
Lattice="3.542909622192383 0.0 -0.0010011190315708518 -0.004064714855438904 3.5424013659475646 -0.00015682347293477505 0.0 0.0 6.978148937225342" Properties=species:S:1:pos:R:3 pbc="T T T"
Pr       0.32678121       1.07004671       4.91787720
Tm       0.32714962       1.07062873       1.42908502
Pt       2.09657142       2.84092688       6.84705778
Pt       2.09534871       2.84149380       2.98760371
10
Lattice="6.2957892417907715 0.0 0.0008433053735643625 -3.14272156695239 5.613873075996483 -2.0740208625793457 0.0 0.0 9.277839660644531" Properties=species:S:1:pos:R:3 pbc="T T T"
Er       5.02022041       0.04106741       4.99757920
Nd       1.86306249       3.42715663       0.03703321
Er       0.82736050       4.58185793       6.11646058
Er       0.81208884       2.31288643       3.23507867
Er       0.82360386       0.03563237       0.35671250
Er      -1.26805080       4.58276205       1.47432092
Nd       1.85978670       1.19747370       6.44041766
Nd       3.98488171       1.19579077       1.79647910
Er      -1.25778734       2.30905595       7.87386614
Nd       3.98417213       3.42300308       4.67337803
4
Lattice="5.007307529449463 0.0 2.887547016143799 1.6673734403731537 4.71883515410717 2.889374256134033 0.0 0.0 5.781097412109375" Properties=species:S:1:pos:R:3 pbc="T T T"
Eu       3.86470553       3.09790957       4.48118307
Ba       0.52900507       0.74055514       4.48375494
Cd       2.19277386       1.91946098       7.37472038
Ag       5.53418681       4.27510498       7.37243015
10
Lattice="5.113694190979004 0.0 -1.3226135969161987 -1.1045997884978218 8.371515500941692 -4.283705711364746 0.0 0.0 10.479069709777832" Properties=species:S:1:pos:R:3 pbc="T T T"
I        2.14907357       4.66886188      -0.26635494
I        3.86925181       3.08325952       6.34698769
Cs       0.45435919       3.87806872       3.70850174
Au       2.71267615       6.16769314       1.87492210
Au       3.30969122       1.59217107       4.20447109
Tl      -0.83447835       6.52910573      -1.26424370
I       -0.09750340       8.05801459       1.56807786
Tl       1.74173349       1.24441061       8.67214805
I        2.68741953       0.60917902       1.81203170
I        3.33294856       7.15120107       4.26967631
20
Lattice="7.6704020500183105 0.0 -1.9888566732406616 -2.477322265986672 7.266768055302768 -1.9999549388885498 0.0 0.0 8.047041893005371" Properties=species:S:1:pos:R:3 pbc="T T T"
Sn       0.87273856       5.29962855      -1.36794525
Au       5.44848163       5.38269742       0.76384906
K        3.99307147       3.33596147       4.36487853
Sn       1.04660519       5.65218332       2.12999708
Sn       7.12743692       1.28610079       2.13607096
Au       0.40876207       2.51473976       6.52829685
Sn       6.84927640       1.01024220      -1.36448222
Au       5.16667026       2.54317278       0.39924950
Au       4.26383688       0.54503665       2.25845162
Sn       2.59168172       1.37856194       0.01457869
Au      -0.15009972       4.14499871       4.26675016
Au       1.25098360       2.70145804       2.25389581
Au       1.98951120       0.52985972       5.22276611
Au      -1.67908866       6.13384555       5.57908350
Au      -1.07818212       6.97904205       0.34399636
Au       2.86058217       4.18897645       0.38818535
Au       3.75740274       6.09695214      -1.49739594
Au      -0.98663035       4.00347983       0.50458542
Au       3.61319665       6.94641716       2.26938144
Au       1.88599445       6.94171810       4.53922944
8
Lattice="4.825207233428955 0.0 -0.005125903990119696 0.0023692812556886543 4.83185376253028 -0.0012547435471788049 0.0 0.0 10.105406761169434" Properties=species:S:1:pos:R:3 pbc="T T T"
Y        3.60965072       2.08186352       1.87548364
Pb       3.61065545       4.49981980       4.42560783
Pb       1.19718300       2.08218061       9.43354269
Pb       1.19890903       2.08211192       4.42495359
Mg       3.61144373       2.08203358       6.93058731
Pb       3.61085701       4.49795672       9.42816246
Pb       1.19901698       4.49853906       1.87887252
Pb       1.20073317       4.49790315       6.93162770
11
Lattice="7.488894939422607 0.0 -0.05302406847476959 -0.02584117396428316 7.810410189720388 -4.50223970413208 0.0 0.0 9.054227828979492" Properties=species:S:1:pos:R:3 pbc="T T T"
Bi       6.72405804       7.80674083       3.79681139
Sn       6.71851801       7.80825382      -0.72738799
I        4.92800290       6.55878863       1.60985058
I        1.04963336       5.17008933      -0.77060976
I        1.14054753       1.33046416       6.12892568
I        4.92906392       2.63641338       3.87143485
I        4.98923716       2.58246792      -0.75970337
I        1.04850776       1.24051513       1.49373003
Bi       6.73644585       3.89810263       6.04780125
I        0.99349116       5.21831474       3.85844417
I        4.83865954       6.47096886      -3.03072422
8
Lattice="2.870281934738159 0.0 0.0015560378087684512 0.0010560883067860932 6.183034806658427 -3.5758001804351807 0.0 0.0 7.128662586212158" Properties=species:S:1:pos:R:3 pbc="T T T"
Li       2.32561884       4.81968121      -1.49879351
Li       2.32497475       1.06381877       4.99028109
Pd       0.89142702       5.18519200       0.65645754
Li       2.32534243       3.48887243       2.05936346
Au       0.88847219       1.06759407       2.34105685
Pd       0.89107160       3.13189807       4.23061280
Au       0.88915853       5.79101363       3.38119079
Au       0.88965673       2.51328708      -0.16715394
7
Lattice="7.055670261383057 0.0 2.4331893920898438 3.1250026956229244 6.313777860192345 2.4361941814422607 0.0 0.0 11.453731536865234" Properties=species:S:1:pos:R:3 pbc="T T T"
K        3.75085349       0.60886952      10.86025067
K        5.17833790       1.49430760       6.72057723
K        5.33258412       5.96523185       6.30676842
Ba       8.06946761       3.28782409       9.80172574
K        6.61405113       2.38842076      14.02341854
K        3.90394553       5.07894646      10.45758374
K        2.46278587       4.18836676       3.14796741
12
Lattice="3.6389009952545166 0.0 -0.004660809878259897 -0.002943766947009835 9.489445229740213 -2.5458056926727295 0.0 0.0 11.822875022888184" Properties=species:S:1:pos:R:3 pbc="T T T"
La       0.24910236       1.61370161       4.52023450
Ho       0.25144370       2.89422656       1.39164553
La       0.24451219       7.88818234       3.19955495
Pr       0.25164903       0.41314631      10.75611983
Ho       0.24880195       6.66075195       9.55662981
Pr       2.06835464       7.22609660       6.42361577
La       0.24758270       4.11678560       6.99512628
La       2.06916997       6.00876357       0.78552464
Ho       2.06949631       9.24485011      -0.52756722
Ho       2.06742958       1.03278148       7.60651191
La       2.06922500       3.55834230      10.16654820
Ho       2.06758621       4.67749192       3.92417255
10
Lattice="4.4724955558776855 0.0 -0.7711625099182129 0.02375628789575028 4.6244888473582515 0.011151298880577087 0.0 0.0 13.116701126098633" Properties=species:S:1:pos:R:3 pbc="T T T"
Mg       1.32475227       1.33986768       0.57100242
Ho       4.01264276       1.33980112       2.76880332
Pb       2.20229525       1.34305547       5.56990054
Mg       3.57002968       3.65087682       0.17923293
Pb       2.64729695       3.65045619       8.05169067
Mg       4.44892679       3.65648088       5.21390026
Ho       0.86060040       3.64858183      10.99090382
Pb       0.44146015       1.33716750       8.66538591
Pb       3.19174267       1.33582017      11.20953782
Pb       1.70583906       3.65212382       2.68914751
9
Lattice="5.859830379486084 0.0 0.001795007730834186 -0.005935496109096519 5.179867204792526 -2.995840311050415 0.0 0.0 5.985672473907471" Properties=species:S:1:pos:R:3 pbc="T T T"
Nd       5.18737378       3.72966354       3.02111459
Nd       3.41981577       2.00137587       0.03199526
Al       0.32911438       3.67457586       0.02604824
Al       2.42482383       4.57045257      -1.51412678
Al       2.42080509       4.56801720       1.56827718
Al       0.33109988       1.16459742       4.56552969
Al       2.42480791       2.05855452       3.02553489
Al       0.33284960       1.16454810       1.48229568
Pd       4.31047211       0.27635247       3.02472510
4
Lattice="3.5079195499420166 0.0 0.0025632695760577917 -0.0008901048701622275 3.5066474738532603 0.0022555096074938774 0.0 0.0 7.13089656829834" Properties=species:S:1:pos:R:3 pbc="T T T"
Tb       0.17312899       0.60924378       5.08808735
Tb       0.17084125       0.60756959       1.32759009
Rh       1.92577932       2.36250335       6.77679645
Au       1.92479090       2.36192418       3.21332412
6
Lattice="4.041600704193115 0.0 -1.2743110656738281 -0.0007952333474161818 4.295484946072118 -0.000398059724830091 0.0 0.0 7.033084392547607" Properties=species:S:1:pos:R:3 pbc="T T T"
Cd       2.07858337       2.06383707       6.11428620
Cd       0.05828733       4.21181560       6.75608223
Cd       2.79948380       4.21156238       1.36650469
Pd       1.42993452       4.21173956       4.06298444
Cd       0.78027370       2.06312440       2.00985544
Cd       3.45008788       2.06443733       3.42610194
9
Lattice="4.039970397949219 0.0 0.0013507171534001827 -0.0026342692004713703 6.623415899946014 -3.8323066234588623 0.0 0.0 7.6461005210876465" Properties=species:S:1:pos:R:3 pbc="T T T"
Tb       1.11561119       2.44053903       4.07308212
Sn       3.13357578       4.66175489       2.99461233
Tb       1.11560316       0.03376793       0.57946558
Sn       3.13710142       0.21936457       3.04009722
Ge       3.13447810       4.11372392      -1.79189640
Ge       3.13458729       2.42726591       1.13420577
Si       3.13696302       0.73746939       5.85657752
Tb       1.11495589       4.82864648       0.56337890
Si       1.11683424       2.40080852      -0.82498906
7
Lattice="5.423534393310547 0.0 -0.0024428488686680794 -2.712302278888501 4.390209662572433 -1.7028011083602905 0.0 0.0 8.66522216796875" Properties=species:S:1:pos:R:3 pbc="T T T"
Tb       2.83669334       1.43277307       2.08675170
Tb       2.83540740       4.15927039       0.43464795
Y        0.12386119       3.45210692       2.94904368
Tb       2.83745738       2.80008976       5.59670366
Y        0.12460920       2.14276723      -0.42248252
Tl       0.12331113       0.90076996       5.04707946
Tl       2.83775545       0.30461901       7.84403669
8
Lattice="5.587789535522461 0.0 -0.0014803550438955426 -0.0060170317665157545 5.588129618850723 0.002306658774614334 0.0 0.0 5.58847188949585" Properties=species:S:1:pos:R:3 pbc="T T T"
Sc       4.38835918       1.39299333       3.34988344
Sc       1.59105374       4.18643112       3.35165588
Sc       4.38508513       4.18744268       0.55831812
Sc       1.59277969       1.39278815       0.55884689
Sn       1.59077986       4.18621928       0.56172852
Se       4.38454838       4.18763020       3.35289758
Se       4.38694651       1.39314854       0.55718390
Se       1.59379219       1.39247398       3.35276941
4
Lattice="3.9354817867279053 0.0 0.005769389681518078 0.002132542952842257 3.934911865290493 0.004287203773856163 0.0 0.0 5.891496181488037" Properties=species:S:1:pos:R:3 pbc="T T T"
Mg       2.30446507       3.24888029       3.61160194
Mg       0.33634714       1.28163885       1.79109247
Hg       2.30365254       3.24763395       0.69431940
Hg       0.33643472       1.28217923       4.70626081
10
Lattice="5.488195419311523 0.0 -0.5035243630409241 -0.2346856429653331 5.267971721328541 -2.832606554031372 0.0 0.0 6.308273792266846" Properties=species:S:1:pos:R:3 pbc="T T T"
F        0.52329021       4.18200041      -2.12396704
Ce       4.45989083       4.96260756       2.10897897
Ce       2.07808226       3.39484426      -0.56494906
F        3.38553887       1.54574609      -0.95992444
Hg       0.63948184       1.54544732       2.44584245
F        3.31979748       3.05608950       1.37096450
F        0.64286567       1.54504368      -0.70839345
F        3.26872686       4.17958014      -2.37913851
F        0.52474886       4.17711715       1.03141182
F        3.45293252       0.03056460       3.00535459
6
Lattice="4.4862189292907715 0.0 0.06319904327392578 0.05657261146229299 4.382882281599318 -1.3577557802200317 0.0 0.0 7.166229248046875" Properties=species:S:1:pos:R:3 pbc="T T T"
Li       2.39769169       3.53607524       2.19955939
Sn       2.35443416       0.62566635       0.77710628
In       0.10848506       1.39564594       3.00494010
In       0.17044995       4.23541039       4.29806918
Li       2.37219551       2.09469778       5.16390143
Sn       0.13710383       2.81545920       0.06947211
5
Lattice="3.934480667114258 0.0 -1.4110662937164307 -0.5069127843810012 3.9043779318863967 -1.4135558605194092 0.0 0.0 6.195424556732178" Properties=species:S:1:pos:R:3 pbc="T T T"
Nd       3.71143601       1.21320518       0.46147291
Li       0.88564819       0.23756023       4.96912625
Pd       2.59945919       2.18954705       3.55587366
Ge       1.88131827       3.61120963       1.55178579
Ge       1.09662917       2.71718120      -0.63675762
12
Lattice="6.120913982391357 0.0 -1.347964882850647 -0.6059351325023524 6.665165417602476 -2.725147247314453 0.0 0.0 9.620113372802734" Properties=species:S:1:pos:R:3 pbc="T T T"
Ho       5.52052185       5.51279989       2.17224181
La       2.92948310       0.55057463       4.92553640
Ho       3.77785282       6.06581557      -0.83516090
La       5.23393490       4.99206676       5.71612659
Tm       1.16822517       1.12800722       1.85991968
Ho       2.34068575       3.31916336       7.12517165
Tm       2.60775624       3.86347535       3.51233535
Tm       5.54794321       1.68800004       7.13713905
Ho       0.87293199       4.41303871       0.51489571
Tm       4.07953609       2.77218904       0.51008789
La       5.83102166       2.19241054       3.57653395
La       2.02773004       6.64379879       5.71680909
8
Lattice="3.9182796478271484 0.0 -0.0015056196134537458 -0.0023345845121622633 3.911833543319088 -0.0023761072661727667 0.0 0.0 9.203756332397461" Properties=species:S:1:pos:R:3 pbc="T T T"
Ce       3.45662365       1.89090486       6.17951750
Ag       3.45390772       3.84836202       0.00255845
S        1.49542730       3.84624117       7.23732465
Ag       1.49889148       1.88826311       0.00082977
F        3.45337540       3.84651001       4.60352584
Ce       1.49661803       3.84547219       3.02027343
S        3.45695965       1.89025456       1.96687868
F        1.49930175       1.88915765       4.60313568
9
Lattice="4.487143039703369 0.0 0.0005587838822975755 -0.009227705745168941 4.548448262141765 -2.6199512481689453 0.0 0.0 5.248213768005371" Properties=species:S:1:pos:R:3 pbc="T T T"
O        1.84430565       0.57995961       0.94971361
Pr       2.98795352       0.56118544       2.96626725
O        4.12962728       3.34530145      -0.63880103
Os       2.98655556       2.07565765       0.34741117
O        1.84194028       2.29653827      -1.24334853
O        4.13228939       2.30099475       1.94277408
O        4.13500418       0.58435292      -0.25572111
O        1.83912772       3.34447077       1.33668267
Al       0.74038252       3.59036252       2.97079435
10
Lattice="5.013998031616211 0.0 0.034570977091789246 0.037340808275841075 7.365280386569759 0.052745066583156586 0.0 0.0 8.403998374938965" Properties=species:S:1:pos:R:3 pbc="T T T"
Ru       0.02302406       3.30169828       0.24452215
La       2.53907409       5.05465964       0.51135975
Li       2.53122820       3.29812764       5.25689170
La       0.02219855       3.30238335       2.78967015
La       0.01434562       1.37523066       6.25140997
La       0.03417284       5.22408569       6.27109956
La       2.51895032       1.54774038       0.48400910
Li       0.04136798       6.99076880       1.53069824
La       2.54577462       6.98158394       4.00507840
Ru       2.54636741       6.97978665       6.56306317
6
Lattice="4.156954765319824 0.0 -0.027827082201838493 -0.07470647132421487 4.163681787146472 -0.03134135529398918 0.0 0.0 5.50031852722168" Properties=species:S:1:pos:R:3 pbc="T T T"
Rh       3.78921912       2.96461023       3.83151613
Sm       1.70786406       2.96689071       1.09243072
Ge       3.82718450       0.88649003       5.38512574
Ge       3.82345877       0.88304884       2.30652275
B        1.70957404       2.96535922       3.84385974
Rh       1.74600905       0.88577492       3.85812368
12
Lattice="4.983980655670166 0.0 1.4589104652404785 2.230985965080095 4.460682520003027 1.4663798809051514 0.0 0.0 9.011153221130371" Properties=species:S:1:pos:R:3 pbc="T T T"
Hf       4.96472843       3.56555920       4.51626287
Zn       4.51302243       3.28769552      10.52666240
Sc       0.45115614       0.77560478       1.57150315
Sc       4.06903187       3.01259909       7.49031587
Sc       1.35872309       1.33701301       7.54775924
Zn       0.90963449       1.05740272       4.53799318
Zn       6.31961428       4.40400384       8.98986473
Zn       3.39603340       1.05374650       9.78999251
Zn       3.40241396       1.06042767       5.26710921
Zn       2.70972889       2.17159086       3.03081812
Zn       2.02542460       3.28924824       5.27063774
Zn       2.01824844       3.28787977       9.79447731
4
Lattice="3.721464157104492 0.0 -0.0055442494340240955 -0.010010051449328334 5.265275976673892 -0.007809717208147049 0.0 0.0 5.264378070831299" Properties=species:S:1:pos:R:3 pbc="T T T"
Nd       1.29200472       1.06625942       1.72653448
Ag       3.14710617       3.69963743       1.71942212
Zn       3.15187066       1.06669550       4.35554741
Nd       1.28727552       3.69778989       4.35560701
5
Lattice="3.917228937149048 0.0 -1.4906766414642334 -0.5706293339325127 3.8766439303860416 -1.493510127067566 0.0 0.0 5.874223232269287" Properties=species:S:1:pos:R:3 pbc="T T T"
Sr       3.04021099       1.41110922       3.26471125
Li       1.92003787       2.37913186       0.32718541
P        0.42476092       2.91892765       2.28904072
P        1.17008084       3.78070718      -1.63343591
Pd       0.24645941       0.44142152       1.81955505
10
Lattice="3.9458394050598145 0.0 0.9345287680625916 1.918253580821726 4.87857336040536 0.715274453163147 0.0 0.0 8.667485237121582" Properties=species:S:1:pos:R:3 pbc="T T T"
Si       2.58210206       4.27468982       5.53085764
Cu       4.72876181       3.28980848       5.27275967
Mg       3.23727927       4.20703942       2.81548593
Si       4.33412821       1.41891757       6.90403843
Mg       3.68040878       1.49381770       9.61866101
Mg       2.83652728       1.30218546       4.46206023
Mg       4.07973855       4.39339055       7.97150664
Si       1.26779760       2.09060839       2.31918395
Cu       2.18737180       2.40652197       7.16216049
Si       1.70518378       3.60666770       9.17610157
9
Lattice="3.9470162391662598 0.0 -0.004161461256444454 -1.9801780515641105 4.880201698994164 -1.650403380393982 0.0 0.0 6.373818874359131" Properties=species:S:1:pos:R:3 pbc="T T T"
F        2.70150797       2.66342865       1.86453862
Mg      -1.25031906       4.21648740       0.51322357
F        2.69850648       2.90856946      -0.95357097
F        0.72755647       0.89353155       3.46389118
Mg       0.73113964       2.41679955       2.14418467
F        0.72936951       3.72757585       3.60368600
F        0.72660836       0.85773378       0.84472054
Hg       2.70702620       0.87421360       5.33695853
F        0.72682814       3.96827836       0.78760521
12
Lattice="5.716403961181641 0.0 -0.9408980011940002 -1.3616663932634627 4.547591778518892 -2.7555994987487793 0.0 0.0 5.492672443389893" Properties=species:S:1:pos:R:3 pbc="T T T"
O        3.34594912       0.88699098       1.75797347
O        0.59177273       2.08564790       0.64105340
Na       2.21646478       0.66627969      -0.28767459
Na       3.93618481       4.48067823      -2.18014081
Al       1.30979587       3.70327909      -0.30386956
Na       4.85966653       1.38413594       3.43417495
Na       4.38457646       2.97621941       0.54598515
Bi       1.76404864       2.18403869       2.45373073
O        0.25477211       3.24620741      -1.92008117
O        2.76994060       2.74020903      -1.22111956
O        2.45130136       3.89729046       1.33644438
O        1.17633213       0.23910326       3.15254158
6
Lattice="3.5673303604125977 0.0 -0.8254079818725586 0.00750396658482079 5.268071552255831 0.0019465814111754298 0.0 0.0 8.14078426361084" Properties=species:S:1:pos:R:3 pbc="T T T"
Mg       1.17459826       2.44022775       6.74875970
Mg       2.44698541       2.44188850       4.11409602
Ho       0.57561241       5.07749178       4.13501552
Ho       3.05162729       5.07391530       6.73179899
Ho       0.02685061       2.43896923       1.77487133
Au       1.81412277       5.07301506       1.36193928
9
Lattice="6.71014928817749 0.0 3.0227503776550293 2.7044181997254086 6.161888980444592 3.01509165763855 0.0 0.0 9.115638732910156" Properties=species:S:1:pos:R:3 pbc="T T T"
Y        2.44179704       5.07120386       9.20726954
Y        2.42250450       0.65863610       7.91247651
I        7.45441083       5.54599523       9.41590531
Y        5.49312763       3.29050405      10.07171823
I        3.47748751       4.48156713       2.95074155
I        1.00433025       1.55405673       5.35410959
I        7.26416515       2.57327778      12.56661874
I        4.16263956       3.38608096       7.30623778
I        4.10437385       0.50639318      10.58709701
10
Lattice="3.9715986251831055 0.0 0.7482982873916626 1.9223100090111902 3.475642476856689 0.7479779720306396 0.0 0.0 11.09013843536377" Properties=species:S:1:pos:R:3 pbc="T T T"
F        2.11966582       2.73533871       1.01139662
F        3.83581929       1.40359882       2.85242789
Ba       2.96169835       3.23037512       7.57933597
Er       4.26513479       1.65756967      11.62341194
Er       1.69963798       2.48704426       3.29266782
F        2.37881631       0.54348978      10.69581002
F        1.65588518       0.12250932       3.51408561
F        1.31739733       2.26184554       5.34762750
F        3.02908380       0.93166632       7.23687212
F        4.64701948       1.88337559       9.54571784
12
Lattice="5.6414899826049805 0.0 -1.394248366355896 0.00404587671539609 7.111836713086004 -0.007154873106628656 0.0 0.0 8.696260452270508" Properties=species:S:1:pos:R:3 pbc="T T T"
Pr       3.83869538       1.54251387       2.28247300
Er       3.14035323       6.98315851       7.31368731
Pr       0.58000796       1.53777140       1.20035994
Er       0.09676078       1.54323121       6.61253019
Er       3.13656178       3.20654587       7.31968627
Er       4.51284517       5.08999686       4.76782941
Er       1.47539843       3.42911929       4.05834103
Er       1.47606247       6.75852028       4.05836455
Pr       0.77603087       5.09740067       0.39296258
Co       2.97054177       1.54231358       5.20724869
Co       1.64516142       5.08934363       6.16753333
Pr       4.03458743       5.09959477       1.49270108
12
Lattice="5.456109046936035 0.0 1.9328157901763916 2.1026076983473545 7.80742824201215 2.753589153289795 0.0 0.0 8.6485595703125" Properties=species:S:1:pos:R:3 pbc="T T T"
Sn       1.34197396       0.92490884       1.56589772
Sn       5.80167566       7.32790698       6.33679060
Sn       3.57269190       4.15504381       3.95244279
Cd       6.63345128       5.46315117       3.99285848
Bi       5.97714240       2.92480497       5.83537316
Bi       4.38123918       2.09672238      10.31852871
Bi       2.03262691       3.56284983       8.27865700
Bi       2.76315814       6.16169130       6.23386371
Bi       2.86683069       1.53684270       5.91795279
Bi       5.23515911       0.17457848       7.91009629
Bi       4.24552169       6.63606941      10.70583165
Sn       5.09086285       4.73530412       8.31668070
12
Lattice="4.230772495269775 0.0 -0.0015323924599215388 -0.002281698070814862 5.469581128085757 0.20805750787258148 0.0 0.0 8.107894897460938" Properties=species:S:1:pos:R:3 pbc="T T T"
Ti       2.80630994       0.19875163       6.97942587
Os       0.69223293       1.04152832       5.68543558
Ti       2.80815537       2.95459369       1.55833924
Ti       0.69170574       3.84933386       5.89823964
Nb       0.69247789       4.58804675       0.55201607
Ti       0.69504577       1.12760164       2.88701280
Os       2.80737550       2.95919210       6.95816797
Os       2.80931537       0.28271025       1.67277164
Nb       2.80882886       2.18764682       4.43671290
Zn       0.69395690       3.82272407       3.13900818
Zn       0.69281798       1.83084870       0.16186883
Zn       2.80805205       4.98132012       4.45813348
10
Lattice="4.398468017578125 0.0 -1.0106773376464844 -0.4660172236596301 8.68081672511143 -2.024047613143921 0.0 0.0 10.072949409484863" Properties=species:S:1:pos:R:3 pbc="T T T"
Ba       0.58915447       7.34933049       0.59451404
La       3.59504491       6.04900000       3.59053729
Pt       2.93447658       5.31289361       0.71352026
Ba       3.82990246       1.71118261       4.61655806
Ba       2.42242106       0.13593282       8.56302446
Pt       1.51239134       4.01931955       4.59654876
Pt      -0.14153859       6.77643915       7.48261380
Pt       1.28255363       8.09152119       3.60940529
Ba       0.83757591       3.27715446       1.66654326
Ba       2.20599742       4.75012760       7.61165772
4
Lattice="3.623436689376831 0.0 -0.007979102432727814 -0.006420161961444492 3.6211445638470345 -0.0035839229822158813 0.0 0.0 9.048099517822266" Properties=species:S:1:pos:R:3 pbc="T T T"
Tb       3.22312780       3.18009604       6.68624829
Pr       1.41441617       1.36777138       0.21110751
Cd       1.41542417       1.36822939       4.67175444
Er       3.22377102       3.18055340       2.73021471
10
Lattice="3.8964333534240723 0.0 0.0001670464698690921 -1.9460388042799084 4.387216751148442 -0.04121413081884384 0.0 0.0 8.786640167236328" Properties=species:S:1:pos:R:3 pbc="T T T"
Pt      -0.94146800       4.00798013       0.71408305
Ru       2.95350357       1.37850357       8.60755274
Pt      -0.94549303       3.15244020       3.50290515
Ru       1.00536509       4.03538805       5.23836033
Ru       1.00515790       3.12420412       7.76747390
W        1.00264217       0.50930624       6.98249181
W       -0.94334422       2.26114821       6.05605773
Pt       1.00444452       2.24948956       1.66204680
Pt       2.95046053       0.52019075       2.59406154
Ru       1.00243978       1.39145651       4.43806595
11
Lattice="4.76444673538208 0.0 -1.4065886735916138 -0.4131316155681759 6.5279725799777895 -1.428443193435669 0.0 0.0 8.809344291687012" Properties=species:S:1:pos:R:3 pbc="T T T"
Tm       1.34320239       4.57293514       6.39483803
Tm       2.74504340       6.33333629       2.35081802
Tm       1.31990015       1.29968959       6.32937884
Tm       0.31479559       1.77494328       2.90731414
Tm       4.21039696       0.15449327       7.36078265
Tm       3.21890825       3.23484678       3.97395843
Al       4.07475558       3.14998481      -1.92777972
Al       0.50742120       4.73996302       3.53432147
Al       2.32227105       0.27413973       0.93261625
Tm       2.22021343       3.36749789       0.56248164
Al      -0.23394499       5.31169197       1.03593355
9
Lattice="4.300575256347656 0.0 -1.2181998491287231 -0.4986560623967299 7.573436949684794 -1.7461435794830322 0.0 0.0 8.190309524536133" Properties=species:S:1:pos:R:3 pbc="T T T"
Sb       0.87384335       5.61520710       6.13369266
Zn       0.21148682       4.32158845       3.79788759
Zn       2.21911157       2.12502073       2.68930451
Ca       3.69440802       6.89850060      -0.29217240
Sb       1.55497551       0.83462251       0.34856586
Ca       2.53342231       7.11102899       3.79688999
Ba       3.36650362       3.21762425      -1.46007834
Sb       0.50138838       1.67725871       4.81369384
Sb       1.92684897       4.76403543       1.66119454
16
Lattice="6.704470157623291 0.0 -0.009365735575556755 -3.3693580695967285 5.765480018704792 0.002742130309343338 0.0 0.0 10.658315658569336" Properties=species:S:1:pos:R:3 pbc="T T T"
Mg       2.05915906       1.28939184       3.99789656
Mg       0.43575334       4.27597436       9.32599711
Ce       3.77983137       4.19337720       9.32030112
Mg       2.19488957       1.29156086       9.32053660
Mg       2.13925004       5.21989263       1.28651903
Mg       2.13763835       5.21236671       6.70170634
Mg       3.78238986       2.29031767       1.46223025
Mg       5.52577406       1.29592599       3.98858848
Sr       0.42953477       4.19158163       3.99716102
Mg       3.78497086       2.28141337       6.52141611
Mg       5.38637773       1.29016857       9.31897312
Mg       3.78495085       4.27559669       3.99465365
Mg      -1.28962051       5.22030088       1.28806044
Mg       0.43003674       2.25376987       1.12261558
Mg      -1.29031131       5.21224746       6.70776813
Mg       0.43532952       2.24870964       6.87181532
12
Lattice="4.115765571594238 0.0 -0.8932926058769226 -0.4708436968119408 8.74457912214318 -2.212218761444092 0.0 0.0 9.864776611328125" Properties=species:S:1:pos:R:3 pbc="T T T"
Nd       1.08498408       8.38111225      -2.39545652
Nd       1.40591846       3.61635266      -0.89502505
Nd      -0.11450413       6.50084554       1.99824310
Nd       0.02234144       2.63148034       2.64429080
Nd       2.61972441       5.51530241       4.64824381
Nd       2.94119841       0.74530263       6.14982505
Si       3.54188529       1.62493644      -0.96738055
Br       2.24773296       0.19001272       2.98403181
Br       0.73211080       3.10398071       5.89158193
Si       0.48315522       7.50432533       4.71734687
Pt       2.01199517       4.56195541       1.87568235
Br       3.29309761       6.02717555      -2.14056155
10
Lattice="3.294020175933838 0.0 -0.001164433779194951 -0.0002402021761318006 6.119456286484497 0.00019669644825626165 0.0 0.0 6.125584602355957" Properties=species:S:1:pos:R:3 pbc="T T T"
Be       1.47623237       3.81599595       4.31356183
Mn       1.47594535       3.08008181       1.98272531
Ta       3.12381305       1.98439901       3.94800699
Ta       3.12282137       1.11355208       0.88602627
Ta       3.12443933       4.17650122       0.01750330
Be       1.47654712       2.34495115       5.77870170
Mn       1.47754350       0.02011585       5.04573108
Ta       3.12371028       5.04293242       3.07945294
Be       1.47613797       0.75393470       2.71570927
Be       1.47594006       5.40559809       1.24759685
12
Lattice="5.752991199493408 0.0 -1.6603567600250244 -1.5979496754878826 5.522824327822442 -1.6646181344985962 0.0 0.0 8.841050148010254" Properties=species:S:1:pos:R:3 pbc="T T T"
Pr      -0.04982477       3.92371223       7.31971397
Pr       2.82884142       3.92718350       2.05449214
Al       0.41130477       0.70561550       6.94347573
Pr       0.75285261       1.16707878       3.71730631
Pr       3.63607478       1.18036999       7.31292545
Al       3.97401206       1.62615225       4.08626740
Al       0.29749013       4.38428326       4.07168264
Al       3.19060913       4.38801392      -1.15408509
Al       1.09195342       1.63965019       0.50925179
Al       2.48267454       3.47451393       5.28194503
Zn      -0.39045070       3.47197525       1.69668935
Al       3.28518999       0.70816167       1.69297903
4
Lattice="3.5282044410705566 0.0 0.5286751389503479 1.7164844568160762 3.0866517264647726 0.521371066570282 0.0 0.0 11.961945533752441" Properties=species:S:1:pos:R:3 pbc="T T T"
Ho       3.08536846       0.54441427       1.71711651
Ca       1.77486174       1.85065211      10.38430569
Ho       2.27038844       0.06306308       7.11209620
Tm       2.64365880       2.35646975       4.60299373
9
Lattice="4.319167613983154 0.0 -0.0012884309981018305 -0.0014682459637247922 4.322416533010987 -0.00015528587391600013 0.0 0.0 8.87533187866211" Properties=species:S:1:pos:R:3 pbc="T T T"
Au       1.20782796       2.39680102       5.70900089
Ho       3.36657079       2.39352080       8.11985741
Si       1.20837530       0.23485553       6.98272127
Au       3.36802619       0.23556509       5.71324941
Au       3.36579147       0.23515049       1.65060627
Au       1.20627522       2.39520162       1.65173062
Au       3.36619589       2.39900948       3.68072523
Au       1.20633744       0.23657946       3.68150880
Si       1.20738622       0.23367161       0.38052026
6
Lattice="2.9536805152893066 0.0 -0.31777384877204895 -0.03328148971769782 2.951864263935697 -0.3153226375579834 0.0 0.0 13.861323356628418" Properties=species:S:1:pos:R:3 pbc="T T T"
Ti       1.07014909       2.74326180       7.60243557
Ti       2.76667698       1.47330220       9.44599357
In       1.54788771       0.23995324      11.99978177
Li       2.32138623       1.02508312       5.32187187
Li       0.59202596       2.26283936       3.13634838
In       1.86075172       0.55881557       1.04992675
10
Lattice="5.39009952545166 0.0 0.004117867909371853 -2.711738432415331 5.7196584116892755 -1.8771347999572754 0.0 0.0 7.461357593536377" Properties=species:S:1:pos:R:3 pbc="T T T"
Zr      -0.24222765       5.27875742       2.61295888
P        2.45216323       1.42790540       2.71190656
Se       2.45833134       1.42760463       6.44235779
Se      -0.24341064       3.21017585       0.84009237
Zr      -0.24641144       5.29273813      -0.93337329
Zr       2.45056435       3.27949952       4.47782617
Se       2.44706809       5.28789266      -1.02532630
Zr       2.45051709       3.29123631       0.93524094
Se      -0.24417956       3.28208607       4.57403596
Se       2.44577732       5.36939086       2.70735284
9
Lattice="5.143581390380859 0.0 0.002537655644118786 0.0015963017804558773 4.566480834424751 -2.640780210494995 0.0 0.0 5.2748003005981445" Properties=species:S:1:pos:R:3 pbc="T T T"
Na       1.93865146       2.32275656      -0.77849197
Ir       4.50890694       3.84786095       1.85807263
O        3.44922026       3.99717563       0.17197364
O        0.42992084       2.30938663       1.14906901
O        3.44690455       2.31036922       2.56943225
I        4.51094117       0.79952186       1.86498976
O        0.43162343       3.99685282      -1.72807664
O        0.42887288       0.66257567       3.52311966
O        3.44660908       0.66265426       0.20378300
18
Lattice="6.617069721221924 0.0 -1.6660146713256836 -1.77621561979413 6.545350360418902 -1.57996666431427 0.0 0.0 10.123445510864258" Properties=species:S:1:pos:R:3 pbc="T T T"
Ba       0.67615314       0.54397761       8.09982509
Na       3.02024639       3.06375588       1.33309552
K        3.36481242       2.50135652       4.56816076
Na      -0.68209888       4.14435583       7.70521091
K        5.75475581       3.09262887      -0.52164803
K        3.95773330       0.36231646       7.49777928
K       -0.85526564       4.28084864       4.19707457
O        0.79886660       5.76419936       7.69791758
K        2.18144872       5.41688516       3.17660684
O        1.80897688       0.43642874       5.76113373
K        1.68741336       6.19871382      -0.12141741
Ba       0.21605614       0.78095876       3.78874117
O        1.22435556       3.02992937       2.69926582
O        3.99442736       4.90939159       0.21227646
O        5.49416923       2.33142441       7.12649615
K        3.24950880       4.34012666       7.63540797
O        4.05705252       5.14153962       5.03278620
O        4.65418363       1.82279828       2.33345880
20
Lattice="6.330567359924316 0.0 -1.025799036026001 -1.9310762603195153 6.731469127163652 -1.3336803913116455 0.0 0.0 6.347893238067627" Properties=species:S:1:pos:R:3 pbc="T T T"
O        4.43979923       4.47132953      -1.19606493
Na      -0.05103985       1.11764712       3.79032374
Sm       1.26304824       6.05092744       1.43118547
Te       4.21434793       0.48958094      -0.46557948
Na      -0.11126444       4.70570457       4.65710579
O        1.34709003       2.67941220       5.07117054
Sm       3.13173747       3.32119357       3.62671158
Te       1.38468803       1.98786888       0.45958594
O        3.77821641       1.12065963       4.08748622
O       -0.22425556       0.92655070       0.06360485
O        5.10531573       3.14449488       2.26106894
O        2.98931536       4.45811191       1.45477241
O        1.79607719       1.70457205       2.25792755
O        2.08431239       5.48421060       3.77293547
O        0.32892091       3.64222759       1.01243923
Te       4.69920377       4.07816736       0.66201686
O       -0.82738481       5.70295184       2.22620874
O        4.73443555       0.09090345       1.26798815
O        3.65151039       2.36906145       0.03992359
O        2.30174725       0.23128475       0.11366186
4
Lattice="3.158114433288574 0.0 0.6471709609031677 1.5205275619311176 2.7707770752970684 0.6455276012420654 0.0 0.0 8.096357345581055" Properties=species:S:1:pos:R:3 pbc="T T T"
Mo       1.27445720       1.13710553       7.36976749
Na       2.04914856       1.59718040       3.55200579
P        2.54483594       0.01813901       1.09525243
P        3.15690885       2.25183853       6.20737736
8
Lattice="3.9883792400360107 0.0 -0.0016999149229377508 -0.0026529455460454652 5.000435125411884 -0.0002082569117192179 0.0 0.0 6.880977630615234" Properties=species:S:1:pos:R:3 pbc="T T T"
Al       1.33156259       1.89156571       4.00949700
Dy       3.32416829       4.39244733       4.16190558
Al       1.33028774       4.39418108       1.70637473
Dy       3.32510485       1.89365042       1.55480837
Fe       1.33229140       0.64378738       6.29940439
Fe       3.32681357       1.89240710       5.62980075
Fe       1.33110066       3.14245270       6.29868260
Fe       3.32491172       4.39187716       0.08400978
10
Lattice="5.075085639953613 0.0 -2.8177433013916016 -1.564765689547471 4.835964466741753 -2.823617458343506 0.0 0.0 5.978871822357178" Properties=species:S:1:pos:R:3 pbc="T T T"
Pr       1.89102026       1.82549745       1.80720511
Rh       3.60708197       4.21476851      -4.15259542
Pr       3.53313278       4.08794433      -1.21061606
H        0.95149104       0.54018061       0.13241510
Rh       4.42365923       1.70009331      -2.68131750
H        3.49344977       0.53864707      -1.27392667
Rh       1.80945946       1.70627057      -1.22895358
Rh       4.36799360       1.74920869       0.30108467
Rh       1.05530745       4.16833440       0.30292548
Rh       0.99517013       4.21464284      -2.69547126
10
Lattice="3.8098714351654053 0.0 0.005660638678818941 -1.8850116409323978 3.309671910231393 0.018115580081939697 0.0 0.0 13.100998878479004" Properties=species:S:1:pos:R:3 pbc="T T T"
Ag       0.70559898       1.67291986      11.53500938
O       -1.18563157       2.77967414       6.25532337
Sr       0.71094934       1.67397448       5.21307731
Mn       2.60636256       0.57071008       1.71396896
Mn      -1.18852655       2.77714137       8.25292042
F        0.71046294       1.67495847       1.81956290
F       -1.19053682       2.77801469      10.32127597
F        2.61068229       0.56785551       3.78981910
F        2.60536906       0.57033768      12.81594399
F        2.60989565       0.57282829       8.42582648
4
Lattice="4.755136489868164 0.0 2.7436649799346924 1.583693315801213 4.484234455954809 2.741204023361206 0.0 0.0 5.488511562347412" Properties=species:S:1:pos:R:3 pbc="T T T"
La       1.47891499       3.25589826       3.83915389
Ag       3.06238449       4.37664816       6.58245160
Ca       3.06496735       1.01378276       6.58416369
Pb       4.64994382       2.13532462       3.84063970
16
Lattice="6.433632850646973 0.0 -0.9308586716651917 0.02811376259116448 6.693976970261752 0.8417590260505676 0.0 0.0 8.24207592010498" Properties=species:S:1:pos:R:3 pbc="T T T"
In       2.79376282       2.42098124       2.07935687
In       3.94821239       5.35234881       5.39474752
In       5.58270574       6.65475804       3.01069743
In       4.98412926       5.26494241       0.09386885
In       2.29079285       5.57786594       2.82131953
In       4.76171070       2.17011973       4.46997634
In       1.53584874       0.90482894       4.64037644
In       1.56621664       6.40665876       8.30025057
In       5.85572207       1.80350922       7.55113212
In       2.77331887       2.85400839       7.30361328
In       0.44016572       4.41745322       6.19526641
Ni       0.90886715       3.94328301       0.72667012
Ni       2.34735601       3.43027171       4.54394249
In       6.35208842       3.39940009       2.22160147
Ni       3.71617293       0.60225077       0.50605039
Ni       3.70495622       0.64870598       6.22314764
7
Lattice="5.387330532073975 0.0 -2.52225661277771 -1.1793848257212007 5.255286263198158 -2.538919687271118 0.0 0.0 7.0150227546691895" Properties=species:S:1:pos:R:3 pbc="T T T"
Sn       0.47365320       4.90259303      -0.10895395
Zn       2.11215564       3.58785492       3.40466287
Se       4.17601186       2.93106161      -2.35634946
Ag       0.01146099       0.96459738       5.93701180
Se       0.44837588       1.72164714       3.45261001
Se       2.32553169       0.36857228       0.02073341
Se       2.68066462       4.08726827       1.01750099
10
Lattice="5.13226318359375 0.0 -0.00469405809417367 -2.580304720024743 6.107244541324955 -0.42092329263687134 0.0 0.0 8.569817543029785" Properties=species:S:1:pos:R:3 pbc="T T T"
Mg      -1.21483428       4.61869775       6.61783568
Sm      -1.21228578       4.05080849       2.27197247
Ru       1.35201766       2.48626867       2.37106538
Sm       3.92273156       1.34384378       7.26975139
Sm       1.35479972       1.02384141       4.86299572
Sm       1.34947868       3.73603226      -0.13966878
Sm       1.35048349       4.31369219       4.65133615
Ru       3.91978364       2.59712500       4.76791531
Sm       3.92271938       0.75450518       2.48720368
Mg       1.35439251       0.46623595       0.52521884
10
Lattice="4.14553689956665 0.0 0.0015792390331625938 0.0007310026166039756 4.1434621166084185 0.006081696134060621 0.0 0.0 10.173169136047363" Properties=species:S:1:pos:R:3 pbc="T T T"
Y        1.63578336       0.53401203       3.37624882
Pt       3.70848646       0.53337658       6.01751602
Pt       1.63646824       2.60652419       6.02245933
Y        3.70945118       2.60516635       8.66354367
Ni       3.70877133       0.53321629       0.93187385
Si       3.70934814       2.60657408       4.65303808
Si       1.63695328       2.60580724       0.93643493
Pt       1.63615317       0.53425023       9.73058653
Pt       3.70911775       2.60321850       2.31106107
Si       1.63517408       0.53363367       7.38896191
20
Lattice="2.9842369556427 0.0 -0.0013533987803384662 -0.0029538968513319495 9.354362021405931 -0.008766423910856247 0.0 0.0 9.35693645477295" Properties=species:S:1:pos:R:3 pbc="T T T"
B        0.69422362       8.22277144       7.46490003
Os       2.18654025       9.06897541       2.28886128
Os       2.18792339       5.06177153       0.97760364
Os       2.18964548       1.73186825       4.31598427
B        0.69561284       5.91067412       5.16040195
Ta       0.69767126       0.72539782       9.33388523
Os       2.18785434       2.38793124       1.63844308
Ta       0.69561189       8.72647647       4.64806834
B        0.69703171       1.23378192       2.79417867
Cr       0.69511312       7.06453100       1.63002040
Cr       0.69583865       2.39069481       6.31490345
B        0.69603571       3.54141372       0.48042804
Ta       0.69485776       5.40386290       7.97185346
Ta       0.69613456       4.04966484       3.30092602
Os       2.18759868       6.40717598       3.63132653
Os       2.18870406       3.04410645       8.32021125
Os       2.18823789       4.39025358       5.65583771
Os       2.18646853       7.06660346       6.30960102
Os       2.18969755       0.38802721       6.98102928
Os       2.18749706       7.72149962       8.98802490
10
Lattice="3.963397264480591 0.0 0.0011625847546383739 -0.006030951230242983 6.83988543701252 -0.0023869110736995935 0.0 0.0 13.026634216308594" Properties=species:S:1:pos:R:3 pbc="T T T"
Te       2.44734200       1.54494316       9.71314179
Te       2.44828558       3.73596892       7.01651519
Rb       0.47311756       0.01974171       6.37232144
Rb       0.46355182       1.85523113      12.88618715
Rb       0.46313358       5.26195760      10.36234156
Cu       0.46206303       6.06550394       1.86015021
Rb       0.46870315       3.43459914       3.85676431
Te       2.44870734       0.32226662       3.21687305
Cu       0.46484171       2.64103913       8.36904118
Te       2.44478086       4.96778149       0.50845984
4
Lattice="3.288553476333618 0.0 0.0002291915297973901 -0.0020183700862638314 3.289185858386699 0.0011404798133298755 0.0 0.0 6.608635902404785" Properties=species:S:1:pos:R:3 pbc="T T T"
Sc       3.13105609       2.44315627       6.51409303
Ru       1.48792483       0.79782247       1.47402723
Ru       1.48717655       0.79862182       4.94262178
Tm       3.13098635       2.44341702       3.20974247
5
Lattice="6.170980930328369 0.0 0.008395574986934662 0.003725771403624207 6.183013270311824 0.005860934033989906 0.0 0.0 6.211175918579102" Properties=species:S:1:pos:R:3 pbc="T T T"
Cs       3.30755606       2.99700305       1.60614670
I        0.22337332       2.99855164       4.71130335
I        0.22513536       6.09113754       1.60342283
In       0.22534229       6.08855520       4.71951958
I        3.31135132       6.08949129       4.71851744
12
Lattice="5.085511684417725 0.0 1.6884390115737915 1.6902054241018623 7.588544638301025 3.378567934036255 0.0 0.0 8.492191314697266" Properties=species:S:1:pos:R:3 pbc="T T T"
Pr       2.60909005       6.26029956       5.85903245
Tb       2.61638063       2.45059253       5.85130329
In       3.47037184       4.33985800       3.28281367
In       3.46159370       0.62003479       3.31602465
Tb       6.00403973       6.25977985      12.63478001
Tb       0.91295878       2.48376264       2.49143150
Tb       4.29953502       6.26173294       9.26775474
In       5.14347663       0.59729665       6.75418479
In       1.75289709       4.33257486       8.44604226
Tb       4.30834421       2.46662135       9.26473508
In       1.77631422       0.60053351       8.39050788
In       5.15185535       4.30962362       6.71173469
4
Lattice="4.590230464935303 0.0 -1.944761037826538 -0.81701930315117 4.514153750542299 -1.942850112915039 0.0 0.0 6.23837947845459" Properties=species:S:1:pos:R:3 pbc="T T T"
In       0.93536022       4.02919911      -1.51809056
Pr       0.40139485       0.64250013       3.54045437
Pr       3.64092052       1.77235820      -1.51816180
Pr       2.28616823       2.90261704       1.60264018
4
Lattice="3.7515361309051514 0.0 -1.0779556035995483 -0.7309933292826688 5.405007915016813 -2.552424669265747 0.0 0.0 7.0504231452941895" Properties=species:S:1:pos:R:3 pbc="T T T"
La       0.43300031       3.66257558      -0.06593508
Ca       1.53197298       2.27119394       3.75298446
Y       -0.67482528       5.03623403       3.14551819
Y        2.66498347       0.93197090       0.64054954
19
Lattice="6.90386438369751 0.0 0.933343231678009 0.8627268431864571 6.845318592942011 0.9377151727676392 0.0 0.0 6.960792064666748" Properties=species:S:1:pos:R:3 pbc="T T T"
Rh       6.10116941       3.96789535       6.89659596
Er       7.46885260       6.42289847       7.13337110
Rh       7.39363710       5.06155076       4.77707309
Rh       4.73189221       1.64250371       6.32532905
Er       3.04760499       4.10169906       6.25603006
Rh       7.26776851       3.88210005       2.42001463
Er       5.15887193       5.98747090       2.61161899
Er       2.15974240       1.75935377       1.60158175
Rh       6.18051094       0.97809997       3.47347120
Rh       1.75677239       6.12696231       1.82251073
Zn       0.82805686       2.39615870       4.36794461
Rh       2.69772342       6.49636117       4.37193085
Rh       5.26508313       3.59838836       4.36755746
Rh       5.07613269       6.09587378       5.64842732
Rh       6.91887232       1.69299213       7.86553945
Rh       2.32897257       0.53919828       5.99505308
Rh       3.56140550       1.67407155       3.98055760
Rh       2.82365346       4.10323523       3.11271041
Rh       4.78179196       2.81599121       1.84342744
9
Lattice="4.947342872619629 0.0 -0.019117681309580803 -2.492926623473067 5.987021079092473 -2.1160576343536377 0.0 0.0 9.97622299194336" Properties=species:S:1:pos:R:3 pbc="T T T"
Cs       1.67256155       5.94722612      -0.62217378
Au       4.16436134       1.54339202       7.93676175
Au       1.69200795       1.41635252       6.42628477
Cs       1.68598523       3.10173552       3.05154849
Cs      -0.79186483       4.49779508       6.16487815
Au       1.68806584       2.24454463       9.14988385
Hg      -0.78924603       3.40903878       0.24395283
Au       4.16515192       0.73235193       5.21922557
Au      -0.79353719       5.66393486       2.11497723
8
Lattice="5.389770984649658 0.0 3.1742935180664062 1.7951191782439218 5.078291170120392 3.1717751026153564 0.0 0.0 6.242912292480469" Properties=species:S:1:pos:R:3 pbc="T T T"
F        5.35607055       3.74343758      10.11818518
F        1.55508260       1.49848009       6.94161314
Pd       2.55503701       0.07945191       5.19299982
F        5.35777113       3.74206943       6.62414621
F        4.56526596       1.50177820       5.22448872
Nb       6.14985635       2.61916465       5.24799200
F        1.55894217       1.49557669       3.44937821
F        2.35089675       3.73924927       8.33910463
18
Lattice="6.542355537414551 0.0 3.7608802318573 2.1838164140427807 6.162383440702972 3.7612876892089844 0.0 0.0 7.564452171325684" Properties=species:S:1:pos:R:3 pbc="T T T"
O        5.63189375       6.03677852       7.41050581
Te       1.50773952       0.29808434       7.86528174
Te       4.77625432       0.29862859       9.74609955
O        3.44358758       4.49711414      11.19480047
Cs       4.78635006       2.61481252       5.94532588
I        1.50592590       0.29807352       4.08006655
Te       2.59788934       3.38030828       9.74285516
O        3.08538715       6.03256367       5.94779935
Cs       6.95209726       4.14031905       9.73678444
O        3.44037367       4.48304814       8.26932049
O        1.75344963       2.25930153       8.29467998
O        6.10431153       0.72007682       8.26911822
O        1.75211982       2.27232310       3.65221460
O        6.11713369       0.71712354      11.19407040
O        7.46289362       4.50165883      13.49884092
O        4.27542490       2.25495904       9.74915752
O        5.62113288       6.03586062      12.05279251
O        2.10974559       0.72250091       5.97500016
4
Lattice="6.4862871170043945 0.0 0.6903272271156311 -0.27281477900248435 5.335117493867418 2.882113456726074 0.0 0.0 6.450417995452881" Properties=species:S:1:pos:R:3 pbc="T T T"
Te       2.95882454       0.18437621       1.17905815
Cs       4.54632806       2.12318661       4.16609293
Te       5.78747761       0.50157774       7.31043249
Cs       1.37480315       3.74185924       7.24159426
16
Lattice="6.4865851402282715 0.0 0.013309106230735779 0.05076434688342529 6.990759595033645 -0.0021046039182692766 0.0 0.0 8.223974227905273" Properties=species:S:1:pos:R:3 pbc="T T T"
Li       2.40896203       3.63520361       1.06922281
Li       5.59604066       6.01266337       1.08360629
Li       5.62889645       2.48408508       7.24197998
Li       2.40203026       3.63860248       5.17268523
Bi       2.36374698       0.18773250       7.24128789
Li       5.59822483       6.00820321       5.18130127
S        1.58420379       6.00682108       1.32722353
Bi       5.57266968       2.50433707       3.12961130
S        4.82834139       3.70978214       5.24365059
S        4.83893346       3.72116797       1.01561677
S        4.91362177       0.14635632       7.24361615
S        1.60749448       2.60351607       7.23270835
Ga       2.34270227       0.17236811       3.12210351
S        1.58184547       6.01044663       4.91853213
S        1.76341857       2.40927654       3.11930648
S        4.65274668       0.03561631       3.13281060
6
Lattice="4.726439476013184 0.0 -1.728577733039856 -0.012853601200027983 5.199427452512628 -0.00037459973827935755 0.0 0.0 7.362646102905273" Properties=species:S:1:pos:R:3 pbc="T T T"
Hg       4.60151705       0.86153988       1.60311428
Hg       3.75717759       3.46370166      -0.70204270
Hg       1.41038580       0.86312197       0.19285428
Ba       2.23117057       3.46285499       2.46524004
Hg       0.70812429       3.46259714       5.63955254
Hg       3.06699073       0.85922059       4.74673848
11
Lattice="4.742548942565918 0.0 0.0003972378617618233 0.0009006039502110023 7.152131500762099 -4.069293975830078 0.0 0.0 8.317261695861816" Properties=species:S:1:pos:R:3 pbc="T T T"
K        4.01627615       6.81816745       2.14879380
Na       1.64564974       3.78441361       1.82949454
Na       4.01719834       6.27570847      -2.32848489
Na       4.01619035       3.23192570      -0.60511554
Na       1.64541975       0.93765935       3.45813672
Na       4.01495427       3.34470749       4.36977422
Au       4.01587719       1.90784968       1.86143195
Au       1.64377029       2.59187445       6.07350413
Au       1.64478776       0.97198047       0.20834409
Au       1.64371148       5.14419888      -0.79801936
Au       1.64493431       5.18996691       4.59507160
7
Lattice="4.697887420654297 0.0 0.8962188363075256 2.259940145294905 4.117648149335597 0.8969317078590393 0.0 0.0 12.780293464660645" Properties=species:S:1:pos:R:3 pbc="T T T"
Sb       3.59707104       1.39851786       9.70506257
Sr       2.55048958       0.78056701       2.42564924
Li       5.90677968       2.76622481      10.35108822
Sr       3.14585585       3.91411962      12.06061597
Ba       1.71813082       0.28778890       6.79090872
Li       4.48864818       1.92662085       5.03083488
Sb       2.10552541       3.29667817       4.75521911
18
Lattice="5.2044596672058105 0.0 2.7993741035461426 0.7209117176273312 6.4973667574539204 2.692349672317505 0.0 0.0 8.195545196533203" Properties=species:S:1:pos:R:3 pbc="T T T"
O        0.59023500       2.72944679       4.29116068
Te       1.55671875       0.96595124       3.86116281
Te       4.15522196       1.87696544       6.43582796
Se       3.84912694       5.03470390       4.75584931
Ag       3.94116009       3.20646517       9.75344685
O        0.20055617       1.20757924       2.30460419
Ag       1.66160629       6.47706396       9.70954690
Ag       1.35324633       3.29484596       8.31202148
O        3.11872560       2.20263919       8.05791276
O        0.28303823       1.93550935       7.33720257
O        5.03196290       0.32719748       7.42298171
O        2.51942306       4.59491525       9.27215293
O        2.68111364       5.59120005       6.21212121
O        2.94653026       1.59870633       2.93773974
O        4.77403603       4.27684116      11.27083707
O        3.47567623       3.38945100       5.35721672
O        5.29985893       5.44104182       5.41929137
O        2.50159847       0.86066442       5.70351787
8
Lattice="4.711892604827881 0.0 1.269766092300415 2.187772735939788 4.175435516174315 1.270511269569397 0.0 0.0 9.451082229614258" Properties=species:S:1:pos:R:3 pbc="T T T"
Li       0.41366947       0.37862194       0.51067559
Pb       3.02464956       1.95821758       9.63127026
Au       2.29450229       1.51704521       2.91967855
Sr       1.32645662       0.92954184       6.55606919
Pb       6.56353142       4.09923163       5.84241266
Li       4.71296323       2.97950210       3.31675118
Au       4.01317094       2.55740602       5.94850508
Au       5.40597732       3.39884437      10.17997759
4
Lattice="3.6628637313842773 0.0 -1.7855983972549438 -0.8654738512596298 3.5557235719843097 -1.7881417274475098 0.0 0.0 4.631304740905762" Properties=species:S:1:pos:R:3 pbc="T T T"
Fe       0.66327205       0.42830096      -0.08870664
Pt       3.19451907       1.31628248       0.44025311
Mg       2.06164378       2.20628398      -1.87392071
Pt       0.93050505       3.09538082       0.43972690
10
Lattice="5.52309513092041 0.0 -0.031125973910093307 -2.815254663317049 4.877609453004459 -1.2451833486557007 0.0 0.0 7.342462062835693" Properties=species:S:1:pos:R:3 pbc="T T T"
Tb       2.35619343       0.42399303       0.98102883
Tb       3.94303194       0.42497635       4.64616706
Si       0.88689115       1.82480905       3.51240926
Tb       2.32477991       3.22329256       6.02653147
Tb      -1.60904936       3.22454211       2.38232531
Ru       5.11858124       0.53571569       1.87314458
Ru      -0.44259639       3.11086623       5.13379445
Si      -0.14775406       1.82697469      -0.15105272
Ru       1.18169662       0.53575600       5.57276669
Ru       1.14709278       3.11362262       1.45894543
4
Lattice="4.654381275177002 0.0 0.0037888369988650084 -0.00011037358078099038 4.6548576341894865 -0.005767305847257376 0.0 0.0 4.652760982513428" Properties=species:S:1:pos:R:3 pbc="T T T"
Y        3.25814591       4.01264399       2.32241431
Sc       3.25844133       1.68607416       4.65204545
Sc       0.93136783       1.68599758       2.32361973
Tl       0.93098543       4.01312731       4.64721582
16
Lattice="6.916003704071045 0.0 3.998323678970337 2.308656096913921 6.523910758232682 4.001165390014648 0.0 0.0 7.988485813140869" Properties=species:S:1:pos:R:3 pbc="T T T"
Tm       4.89759403       2.50315698       3.94648961
Tm       6.05685290       5.72689410       5.95489777
Tm       4.89793689       2.50307630       7.95410829
S        2.59565996       0.85072498       7.94596402
Tm       6.04836270       5.72500465       9.94880732
Ge       3.75078411       4.11218495       5.95282727
Tm       2.60314522       5.72316809       3.94893051
Si       3.75037679       4.11345690       9.94579946
S        6.05369932       0.85308504       5.95126835
Tm       1.44421486       2.49819188       5.94960436
Ge       7.20824940       4.11344640       7.95103983
S        2.59629331       0.85126539       3.95283525
S        6.05474006       0.85073042       9.94466773
Ge       7.20942045       4.11272974      11.94432456
Tm       1.45133661       2.50339088       1.95493340
Tm       2.60340753       5.72367243       7.95822252
15
Lattice="6.732293605804443 0.0 0.005162523593753576 -0.01585595849400862 11.92998404617913 -0.009662720374763012 0.0 0.0 13.78274154663086" Properties=species:S:1:pos:R:3 pbc="T T T"
K        2.62895531      11.89681205       4.21712767
K        2.62897871       9.31137951       7.73292230
Cs       2.63099745       8.62699037       0.85020617
K        6.00821760       2.86581520       4.64562066
K        2.64268289       2.55760344       7.76545523
K        2.64390965       5.94478413      10.46998325
Cs       2.64743536       3.24932437       0.84895471
Na       5.99186945      11.90057368       7.75459921
Na       5.99537876      11.87600293       0.85366217
K        2.63838825       5.92700600       5.02764314
Na       6.00764050       5.92913960       7.75289760
K        5.99959819       8.97756682       4.62777924
K        2.63062687      11.89420807      11.27068582
K        6.01066798       2.90160665      10.88022194
K        5.99923719       8.98560774      10.86217448
20
Lattice="5.010031223297119 0.0 0.5743557810783386 0.4541002308985325 5.733601223665272 0.08499772846698761 0.0 0.0 10.326370239257812" Properties=species:S:1:pos:R:3 pbc="T T T"
O        1.60415921       0.43995173       3.70430199
O        4.85033238       4.02462798       3.34938967
P        3.90778868       2.88996130       3.08559351
O        1.19698461       1.65375323       6.09331684
O        2.75331733       3.46578523       2.27602372
Ca       1.35149672       5.38653502       1.75421811
V        0.67674222       3.39230606       8.67258861
P        3.37725864       4.88720142       7.44227889
O        2.12211265       2.42198609       9.24257803
V        2.30842158       1.06720777       5.03321893
O        3.36469768       2.42369535       4.51543297
O        4.61733380       1.67620854       2.44527103
O        3.65035781       5.37190747       6.00317538
P        3.10566048       1.28347935       9.56247237
O        4.37978572       3.84514844       7.88167513
O        1.93677107       4.40385825       7.55067181
O        0.46620848       4.35766674       9.90707287
O        3.13027927       0.43265820       8.21268726
O        2.68465567       0.41537513       0.35816485
O        4.53029827       1.86723579       9.67463641
12
Lattice="6.683262825012207 0.0 -0.9433093070983887 -3.5543882685742574 5.665299050978656 -0.9445587396621704 0.0 0.0 8.106209754943848" Properties=species:S:1:pos:R:3 pbc="T T T"
Pr       2.72080495       3.59682528       0.76070323
Pr      -0.69452493       5.51042973       0.75440886
Pr      -0.52501434       1.71961325       1.69753783
I        3.42947614       4.87704786       5.77825769
C        5.27673931       0.15662326       2.66542232
I        0.14639597       2.99537797       6.72371932
Pr       1.00566879       0.49506029       4.57521662
Pr       0.86800689       4.24194282       3.63898614
Pr       4.25727811       2.37191016       3.63740598
I        3.58342118       1.09254512       6.72082196
N        1.86077663       2.04683147       2.66685777
C       -1.54822150       3.93533039       2.66838072
18
Lattice="9.183462142944336 0.0 -1.8234654664993286 -2.1419888163023306 8.869787089914343 -3.075438976287842 0.0 0.0 9.484065055847168" Properties=species:S:1:pos:R:3 pbc="T T T"
I       -1.55740516       6.68844920       4.96731927
I        1.42001685       7.28271781      -1.52944399
Cl       2.14603379       6.24734091       2.51649133
I        3.04141414       8.04229107       3.72821539
Cl       6.57787887       7.32434241       1.21293079
Sb       7.03860250       1.89165878       1.07938728
Cl       7.65570318       2.35967954       3.37028382
I        3.94183591       3.66162508       5.42377158
Cl       0.83860003       2.01064454       8.12359506
Cl       5.12562295       5.43081924      -2.87237966
Cl       6.26829639       1.43715201      -1.30138670
Cl       2.58811868       1.95332764       4.33764508
Cl      -0.87609015       3.70322906       2.06441371
I        2.70074133       2.65976521      -0.05535746
Cl       3.53638491       8.80085984      -0.89020252
Cl      -0.48881522       5.81554745      -2.06326524
Cl       5.02257572       3.37730784       1.33933063
Cl       8.82576728       0.34219183       0.75766704
18
Lattice="3.6239986419677734 0.0 -0.4300844669342041 0.11601460024401648 7.395593067641379 0.9805291295051575 0.0 0.0 15.476511001586914" Properties=species:S:1:pos:R:3 pbc="T T T"
Tm       0.25284477       3.30838348       3.52710650
Tm       2.85118649       4.13961505       9.95740638
In       3.27966772       0.12585795      13.55584976
Tm       0.67181473       2.85673839       7.06273384
O        0.99988080       5.23217654       9.81697393
In       2.71867966       1.17258590       8.83249980
Tm       1.74223754       1.80733105       0.59384243
O        0.07836994       1.63784843       2.04002229
In       1.26172106       2.00902863      12.06730381
Tm       1.23634392       6.46668865      11.79494871
Tm       0.30470923       7.01272122       3.93134098
Tm       3.28435564       4.07940458      13.57284432
O        3.07386725       5.32516047      11.81257018
Tm       1.80301537       5.45274857       1.08344226
In       2.26837863       1.03428244       5.01250034
In       2.34925911       5.09119393       5.66258837
O        0.14641788       5.30566998       2.58197719
Tm       0.79435108       6.54468940       8.10523841
6
Lattice="2.893876791000366 0.0 -0.08356641978025436 -0.024385922028708193 2.915584388907739 -0.10236219316720963 0.0 0.0 8.734214782714844" Properties=species:S:1:pos:R:3 pbc="T T T"
Be       2.01300704       0.75115910       3.88570118
Be       0.65108472       2.28723095       7.60181444
Cr       0.59068563       2.23849977       5.12143102
Cr       2.07801844       0.79857475       6.38329380
Ga       0.55596669       2.20051494       2.39816638
Ga       2.11593544       0.83247187       0.33736907
12
Lattice="7.688720226287842 0.0 -2.451353073120117 -4.304136690891482 6.497389197225565 -2.148672342300415 0.0 0.0 8.15426254272461" Properties=species:S:1:pos:R:3 pbc="T T T"
La       3.49888864       3.35306936      -2.09803737
La      -0.19680539       3.94194746       0.08867692
Pt       0.69690519       2.10428893       2.20545533
La       3.27457401       3.51536529       2.03176436
La       1.57931038       0.26714546       4.32547427
La       1.81542727       0.09859214       0.20387720
Os       3.69226000       0.48179252       6.21074614
Os      -2.30156989       3.72817964       6.36292643
La       5.80500832       0.69447050      -0.06743905
La      -0.42996008       4.11043475       4.20854425
Pt       2.38454819       5.35355902      -0.08833868
La       5.56772820       0.85714930       4.06255808
16
Lattice="6.882582664489746 0.0 3.9147872924804688 2.3504082404790116 6.47335678407233 3.911285638809204 0.0 0.0 8.040487289428711" Properties=species:S:1:pos:R:3 pbc="T T T"
Ho       5.34759760       1.03147196       7.45024279
P        5.45457072       5.93183623      11.30476683
Ho       6.60440172       4.17669632       9.51222970
Ho       5.60701960       1.21393902      11.26298764
Ho       2.94990743       4.17597634       7.42927941
Ho       1.95162721       1.21413339       9.18294058
Ho       6.70935471       4.24957109      13.09410807
Ho       1.84813644       1.13990547       5.59812515
Ho       3.21101587       4.35749538      11.24182100
Se       8.89537911       5.93147778       9.24087835
P        4.27833042       2.69465412       9.34522206
P        8.89534750       5.92953892      13.25898447
C        7.71962156       2.69456094      11.30388785
Se       7.72091086       2.69537198       7.28365809
Se       5.45303165       5.93183430       7.28195812
Se       4.27881447       2.69428120       5.32752421
9
Lattice="5.209883689880371 0.0 0.008730734698474407 2.613275983336847 4.512959820729186 0.005441287066787481 0.0 0.0 9.952695846557617" Properties=species:S:1:pos:R:3 pbc="T T T"
Pr       2.01458937       1.45163172       0.83735100
Ag       7.23081804       4.46063631       9.65815552
Pr       4.62243957       2.95660159       8.50747153
Pr       7.22896771       4.46113529       6.28088095
Pr       7.22970073       4.46012845       3.08277377
Ag       2.01166513       1.45182822       4.54281363
Ag       4.62285356       2.95486631       1.79736934
Ag       2.01460969       1.45178652       7.55006457
Ag       4.62189446       2.95721167       4.80301021
14
Lattice="7.039520740509033 0.0 0.10348010063171387 0.21659663655516412 7.042542233966727 0.0985109880566597 0.0 0.0 7.034639835357666" Properties=species:S:1:pos:R:3 pbc="T T T"
Pd       5.60081550       6.10485599       0.48108715
Tb       3.93488571       1.07718635       2.33867076
Tb       0.61947215       4.66767200       1.84592156
Tb       0.33134370       1.11587765       2.32916286
Pd       2.51924747       6.54590773       0.79076284
Sm       6.95338379       3.99386130       5.42756816
Pd       5.71625013       2.77162803       0.64736974
Tb       4.02379388       1.13980528       5.81815432
Tb       0.45151930       0.49907415       5.83220060
Tb       3.48307612       4.61647539       6.00189216
Pd       1.95636148       2.55774142       0.35100582
Sm       4.08774719       4.50463528       2.49385184
Pd       2.16427787       2.65604338       4.07279786
Pd       5.74795602       6.32983077       4.14087466
11
Lattice="6.4931182861328125 0.0 1.7155858278274536 3.251873159840612 5.840434526317942 0.8527126312255859 0.0 0.0 8.877230644226074" Properties=species:S:1:pos:R:3 pbc="T T T"
Ti       2.93047685       3.07305700       7.53207561
Ti       6.17577277       1.21526200       8.40030887
Tl       2.92857057       1.15361283       3.09553796
Ti       6.17785695       5.06935984       8.39373174
Tl       6.16953142       3.14147000       3.96081187
Te       4.64539857       3.14416582       9.75839628
Te       1.39326068       1.15965535       8.90029506
Te       4.45806338       1.14918539       6.17486889
Te       4.41838256       5.06695226       6.19764450
Te       7.70626439       3.13867636       7.02979043
Te       7.93593806       5.06717958      10.59446198
9
Lattice="3.81449818611145 0.0 -0.0005963094299659133 0.008962540578970186 8.38541314853934 -4.766799449920654 0.0 0.0 9.626351356506348" Properties=species:S:1:pos:R:3 pbc="T T T"
Tl       0.70373063       1.53894966       8.13003016
Sr       2.61758616       7.36366943       1.86766537
Tl       0.71083191       7.34945585      -1.07347244
Sr       0.70756444       4.56185893       6.67119537
Tl       0.70691516       4.80011115       3.32181374
Tl       2.61575676       7.36256236       5.36222538
Sr       0.70348909       1.76260332       1.85098783
Tl       2.61430579       4.31027178       0.11836061
Tl       2.61340882       2.02179219       4.91134804
6
Lattice="2.895402193069458 0.0 0.0004454735026229173 -1.4537954052277653 2.503451996022445 -0.0008463268168270588 0.0 0.0 8.617058753967285" Properties=species:S:1:pos:R:3 pbc="T T T"
Mo       0.83898443       0.75445144       3.88006798
C        0.83182831       2.42443916       5.31881920
Mo       0.83674835       0.75560787       6.74458205
C        0.83164634       2.42489189       2.44963816
Mo       0.83697416       0.75602098       1.02348995
N       -0.61307566       1.59075054       8.19604663
