12
Lattice="4.418553829193115 0.0 -0.9815439581871033 -0.4225828617776594 8.875740538222825 -2.013712167739868 0.0 0.0 10.199567794799805" Properties=species:S:1:pos:R:3 pbc="T T T"
Pr       1.25301247       5.95675301       5.59245487
La       2.64223386       7.40432602       1.46737560
Ca       1.45892684       1.52937431       6.58001786
Te       0.55213882       5.22079076       2.52336628
Pr      -0.14823375       4.52661754      -0.53065030
Pr       0.06617381       0.02096511       0.47818771
Te       3.34848727       8.23257691       4.56640253
Te       3.56452446       3.67761524       5.59287590
Pr       2.84707556       3.03214131       2.44730458
Te       2.14761182       2.24336784      -0.61010139
Te       0.77242877       0.82072470       3.56247372
Te       1.94238810       6.70306002      -1.58829984
12
Lattice="4.74008321762085 0.0 -0.6117506623268127 -2.466409745281822 4.226966137042096 -1.093612551689148 0.0 0.0 6.089650630950928" Properties=species:S:1:pos:R:3 pbc="T T T"
O        1.37901496       1.11206956       4.10547916
Li      -1.63722908       3.50763329      -0.40231165
Cu       3.26849612       0.85128281       4.07235868
Li      -1.67512105       3.51585457       2.64671062
O       -0.52861728       2.42990685       1.00891972
B        0.83032263       2.29531586       0.82321446
B        0.77144989       2.31284808       3.86920954
Cu       3.32850679       0.85120540       1.01415158
O       -0.59006017       2.44035484       4.05591322
O        1.44340046       1.09283896       1.04939722
O        1.60116271       3.39252584       0.44803609
O        1.54965094       3.40698835       3.50001155
3
Lattice="3.584869146347046 0.0 0.00013958665658719838 -0.001125856407281927 4.012327989930929 -2.3191089630126953 0.0 0.0 4.632716178894043" Properties=species:S:1:pos:R:3 pbc="T T T"
Tb       2.58528051       1.55247412       3.06565701
In       0.79301357       2.89079858       0.74867490
Cu       0.79405686       0.21464445       0.75067525
5
Lattice="3.7718002796173096 0.0 0.006369351409375668 0.006863454563995486 4.284622417214051 0.0042708516120910645 0.0 0.0 4.284247398376465" Properties=species:S:1:pos:R:3 pbc="T T T"
Ti       2.84795880       1.68348493       3.71684149
Cr       0.96627882       3.82551049       3.71653843
H        2.85219712       3.82548163       3.71747798
Ti       2.85156861       3.82342631       1.57776510
In       0.96193899       1.67943761       1.57086368
8
Lattice="3.203761577606201 0.0 -0.0006528381491079926 -0.001494009986577287 5.246998574226975 -1.8422996997833252 0.0 0.0 5.569113731384277" Properties=species:S:1:pos:R:3 pbc="T T T"
N        1.32438262       2.44681935      -0.16277523
N        1.32369035       5.05847434       1.78305773
Hf       2.92619551       1.12734787       4.51828060
Hf       1.32380455       3.75337742       3.59625303
Zr       1.32375188       1.12797727       1.73282448
N        2.92518079       5.02102901      -1.08157098
N        2.92563822       2.48031486       2.70414380
Sc       2.92517121       3.75226780       0.81099548
8
Lattice="6.002380847930908 0.0 -2.415377140045166 -3.1276217065722562 5.50608521059508 -1.2666655778884888 0.0 0.0 6.456364631652832" Properties=species:S:1:pos:R:3 pbc="T T T"
Mn       2.01548643       0.54283900       1.40163193
Mn       4.23575570       1.92619527      -1.73618284
K        0.46831426       3.31098134       3.99392298
S        4.00601913       1.25673079       0.44101558
S        0.53569893       2.06003619       0.50675377
K        2.68182037       4.69138314       0.86065595
S        3.69647687       3.99962532      -2.60028801
S        2.71594033       0.44124394       3.61800078
8
Lattice="5.153810977935791 0.0 -1.8213950395584106 -0.6439153642521801 5.106532677384205 -1.8194255828857422 0.0 0.0 8.220815658569336" Properties=species:S:1:pos:R:3 pbc="T T T"
P        0.47948125       2.45299459       7.04957637
P        1.93339909       1.18064692       2.93859384
Pt       1.20049131       1.81208718       4.98952432
Pt       3.77973022       1.81805822       4.07536999
K        4.18118718       3.73571613       1.11868626
Pt       0.87818294       4.38059804      -0.03568618
K        2.73018444       5.01453105       5.22587366
Pt       1.20363083       1.81592030       0.87567675
16
Lattice="7.224411487579346 0.0 -1.7995145320892334 -2.6708999317705775 6.713841026510731 -1.8077653646469116 0.0 0.0 10.116847038269043" Properties=species:S:1:pos:R:3 pbc="T T T"
Tl       5.73972055       2.10924424       0.70813159
Cu       6.20752691       1.79169189       5.76791705
Sm      -0.63714330       6.43628488      -1.82299850
Sm      -0.63904726       6.43938825       3.23409739
Cl       0.18088770       5.87828091       5.76051601
Cl       4.46321330       4.80114249       1.77859958
Cu       2.40921219       4.37081311       0.70520268
Cl       1.87257491       5.81236470      -1.02458504
Cl      -1.37471952       3.86062178       8.64548892
Tl       2.87148556       4.05526024       5.77277340
Cl       6.74846572       0.34536419       7.49529674
Cl       1.21515274       0.27559173       2.51559819
Cl       2.77031892       2.29537955      -0.36536048
Cl       4.15805107       1.35853086       4.69449811
Cl       0.86438431       4.33352030       2.43408235
Cl       0.52965019       1.82609583       5.84434451
14
Lattice="6.497867584228516 0.0 -1.9141103029251099 -0.0005375554353979255 7.0822467599947885 0.003070299280807376 0.0 0.0 8.01652717590332" Properties=species:S:1:pos:R:3 pbc="T T T"
Ca       0.97963543       2.34342036       1.68357633
Al       1.08659080       5.88620716       3.72493791
Se       3.02710766       2.34507344       3.74511657
Dy       4.53578743       5.88847444       3.74101407
Se       5.97337845       0.54340901       5.68327437
Al       4.36107472       2.34581893       5.70345259
Dy       0.91532373       2.34374350       5.68948360
Se       5.97223018       0.60868155       1.83243820
Se       2.42198769       5.89332224       5.68842389
Se       5.97204436       4.08242557       1.83418664
Se       5.97372094       4.14946986       5.68347211
Se       2.42369709       5.88769603       1.78880912
Ca       4.47088509       5.88873279      -0.26800677
Se       3.02578677       2.35008819      -0.37212997
10
Lattice="7.5043487548828125 0.0 -2.8002851009368896 -2.984174313625204 6.882160913751932 -2.8349320888519287 0.0 0.0 8.848543167114258" Properties=species:S:1:pos:R:3 pbc="T T T"
Tl       4.64863674       3.62613219       3.14565147
Rb      -0.23217514       1.90498260       1.53477759
Rh       2.38771830       0.18434699       5.96776456
Rb       2.02515944       5.34204732      -1.29083719
I       -2.05876278       4.84256196       2.65625191
I        3.85321843       2.40862891      -2.41829969
I        2.68169982       0.63005399       3.30822888
I        1.71343525       5.54830028       3.13339199
I       -0.88494936       6.62730314      -3.06789066
I        0.07680258       1.69895084       5.95877330
6
Lattice="3.546360731124878 0.0 0.002694512251764536 -0.002090404832752531 4.96737245443765 -0.003285504411906004 0.0 0.0 8.535694122314453" Properties=species:S:1:pos:R:3 pbc="T T T"
Dy       0.85923380       1.77638985       0.00847764
Dy       0.85588122       4.26098400       4.19126512
In       2.63141436       1.77671879       2.87790859
Cd       2.63454016       1.77742168       5.72915304
Cd       2.62973385       4.26117823       7.00746141
In       2.62434512       4.26074299       1.32853301
12
Lattice="5.6989216804504395 0.0 -1.3656173944473267 -2.631946359436199 7.25165652423914 -3.533057451248169 0.0 0.0 8.621600151062012" Properties=species:S:1:pos:R:3 pbc="T T T"
Pb      -0.22442305       4.94043764       5.54168993
Pb       0.97908827       1.28465859       7.34780341
Sm       3.22659791       3.11410118       5.75676925
Pb       3.37327700       0.05332227       4.56953161
Ho      -1.45668312       5.52528526       2.61251522
Ho       2.20238796       0.70219143       1.65075581
Pb       3.06414380       6.17439763      -1.67754882
Ho      -0.13427975       1.91719020       4.40595616
Pb       2.02660834       3.73441239       2.78431282
Ho       0.87855697       4.31064908      -0.14312987
Ho       1.90415184       6.74336115       3.99124671
Pb       4.41368407       2.50068170       0.11310233
5
Lattice="6.651755332946777 0.0 -0.0005418763030320406 -0.005983337772827517 6.654912643027577 -0.016430141404271126 0.0 0.0 6.940133571624756" Properties=species:S:1:pos:R:3 pbc="T T T"
K        0.79260901       0.29050291       1.35891669
K        0.78705155       3.61778877       4.81873753
K        4.11800288       0.28790890       4.82624775
Rb       4.11554809       3.61530962       1.34924359
Au       4.11501514       3.61495976       4.82581264
16
Lattice="3.9790725708007812 0.0 0.0009499338921159506 0.017856216793095563 10.429098101780706 -2.6690115928649902 0.0 0.0 11.332504272460938" Properties=species:S:1:pos:R:3 pbc="T T T"
Se       2.60062486       0.01267388       6.91706384
Ce       2.60933668       6.20242685       8.21529209
Se       0.62226550       8.21644023       7.42970039
Ce       2.61380965       6.66837222       1.16062073
Se       2.60171551       1.57639411      -0.18631288
Se       0.62754001       7.98033052       2.71397755
In       0.61793498       4.47491658       4.43181354
Se       0.62247425       6.32653631      -0.97755767
Se       2.60540606       2.37465492       4.19434404
Ce       0.60992028       0.29737920       4.71322044
Se       2.61836280       9.54903889      -0.02275230
Se       0.61546385       3.73116710       7.76866608
In       0.62661661      10.25830851      -2.18394434
Se       0.62101158       4.58089672       1.80031668
In       2.60221076       2.02384449       8.52656944
Se       2.61471546       6.02939818       5.31447753
6
Lattice="4.167176723480225 0.0 -0.0018531200475990772 9.522310207916467e-05 4.241972922210032 -1.5297679901123047 0.0 0.0 6.626130104064941" Properties=species:S:1:pos:R:3 pbc="T T T"
Au       2.28812375       2.07418984      -0.28457794
Dy       0.20519806       2.80913170       1.73784254
Au       0.20434313       4.23461297      -0.93929342
Au       0.20454749       1.38021281       4.41496738
Au       2.28891055       0.68745928       2.50119320
Au       2.28754962       3.54051458       3.75641012
12
Lattice="4.979383945465088 0.0 -0.5800929069519043 -0.6520675779092932 5.270146783595174 -0.9869059324264526 0.0 0.0 8.479301452636719" Properties=species:S:1:pos:R:3 pbc="T T T"
Pt       0.11078224       4.45805831       0.93985164
Sb       1.23818193       1.72143970       3.25759839
Pt       2.26432714       0.89657481       0.30720612
Pt       1.80659617       1.63961008       6.07616699
Pt       4.18828940       1.96624016       4.55397036
Pt       3.63410093       2.67810415       1.95532464
Pt       0.04187457       4.67291588       3.75734799
Pt       0.20239876       4.18143681       6.57726324
Pt       2.44098676       3.57353319      -0.39876646
Pb       4.66809477       1.76675886       7.57418333
Pt       3.36511182       0.01980337       2.69655323
Pb       2.62212307       4.42073489       4.88255530
10
Lattice="5.794544696807861 0.0 -3.2614967823028564 -1.8332408920681338 5.499376043004485 -3.2605538368225098 0.0 0.0 6.782324314117432" Properties=species:S:1:pos:R:3 pbc="T T T"
F        4.22556626       3.45803374      -1.88056266
Rb       5.07331030       0.60691460      -0.37166694
Rb       1.26213843       3.36170166      -0.36921255
F        0.79244715       3.05973418       3.51755425
K        3.16840734       1.98260460       3.02131625
Sm      -0.64584485       4.73279184       3.02138085
F       -0.25033414       0.90859466       5.78557905
F        3.66402861       3.89679517       1.25196177
F        2.67084199       0.06890542       4.79195586
F        2.11260521       0.51259793       1.13496056
10
Lattice="6.02404260635376 0.0 -0.48787254095077515 -1.0914481684287762 5.569403871089204 -3.1524062156677246 0.0 0.0 6.800420761108398" Properties=species:S:1:pos:R:3 pbc="T T T"
Er      -0.15438954       5.42566053       0.05189801
Sn       3.95159318       4.46133184      -2.76959250
Sn       3.22491311       4.83435759       1.16411733
Sn       0.98823903       2.58396149       0.81918797
Sn       0.78722652       5.28614472       3.36939753
Co       2.09934073       4.39122571      -1.10182768
Co       5.20931612       3.37545050       1.94288776
Sn       3.51525829       1.52339393       2.52053949
Er       3.92201925       2.08686498      -0.66062831
Sn       0.64018631       2.56443696       4.57624868
4
Lattice="4.674277305603027 0.0 2.682534694671631 1.5529740248855148 4.405070518260693 2.687164068222046 0.0 0.0 5.392868518829346" Properties=species:S:1:pos:R:3 pbc="T T T"
Y        1.46380895       4.13864635       5.03201913
Pr       3.02399529       1.93676500       7.72556015
Mg       1.46624591       0.83466006       5.03425935
In       4.58207869       3.03757695       5.02473437
7
Lattice="4.837609767913818 0.0 1.6633472442626953 1.7179676818565066 6.217066430371098 2.9019887447357178 0.0 0.0 7.9260358810424805" Properties=species:S:1:pos:R:3 pbc="T T T"
Rb       4.58739914       3.70929561       6.07699024
Rb       3.14036131       3.94840817      10.29775514
Sn       3.65986374       0.62043473       8.75821946
Sn       0.59619136       0.73690716       1.90885350
Sn       6.27430070       5.53862894       9.05008962
Hg       1.47482565       2.37590749       7.26388628
Hg       2.34330353       0.95486261       4.72062326
5
Lattice="4.687204837799072 0.0 0.00024732507881708443 -2.3432279320172706 4.064991938393213 -0.001153543940745294 0.0 0.0 5.780514240264893" Properties=species:S:1:pos:R:3 pbc="T T T"
Cd       1.16952045       0.23793847       4.85925579
Au       3.51284728       1.59486550       3.93418285
Cd       3.51400319       1.59233972       1.12377984
Cd       1.16952365       2.95005584       2.80299367
Au       1.17012201       2.94478089       5.77394472
8
Lattice="4.547764301300049 0.0 -0.007531554903835058 0.011412791471161421 7.240080898156474 -1.886325478553772 0.0 0.0 8.82006549835205" Properties=species:S:1:pos:R:3 pbc="T T T"
Li       1.42735429       3.86467280       2.45716203
Li       1.43304950       0.95428082       4.17212205
Te       1.42511283       1.29007199       1.38981146
Te       1.44819262       3.54086061       5.25156636
Te       3.69970498       5.04420044       1.39739679
In       3.70800715       6.80914477      -0.86865881
In       3.71892326       5.25663800       5.60708009
Te       3.71878662       7.04054516       3.33064837
10
Lattice="3.912424087524414 0.0 -0.024749407544732094 -0.04352639533002534 8.181339828354767 -0.035308588296175 0.0 0.0 8.185356140136719" Properties=species:S:1:pos:R:3 pbc="T T T"
Sr       0.15849574       3.38260082       0.66488592
La       2.10008650       6.22805388       1.89037320
La       2.10672705       4.62974144       5.98116634
Sr       0.13754944       7.47583916       4.73970217
Rh       0.15124540       4.54954905       3.58194547
Rh       0.14321210       6.31349675       7.67628328
La       2.13159883       0.53840619       7.60193916
Rh       0.16706476       2.21245436       5.93611113
La       2.12435995       2.14165989       3.50512732
Rh       0.17508891       0.45134272       1.83948762
6
Lattice="4.0675883293151855 0.0 -0.018349673599004745 -0.017856631857331832 3.9082875022538506 -1.3137367963790894 0.0 0.0 6.546329498291016" Properties=species:S:1:pos:R:3 pbc="T T T"
Au       2.95574544       3.12987414       0.28259250
Au       2.96692944       0.53249161       5.54734067
Au       0.91934713       3.79421925       2.29819265
Pd       0.92511982       2.48559063       4.89898672
Au       0.93016067       1.17709793       0.95881422
Au       2.96207999       1.84149080       2.95409059
9
Lattice="4.461085796356201 0.0 2.555288076400757 1.4865594003515374 4.851436753799051 2.5351712703704834 0.0 0.0 5.158374309539795" Properties=species:S:1:pos:R:3 pbc="T T T"
Tl       0.90402726       1.40160127       2.28907371
H        3.07078998       3.85952604       3.66761499
H        3.87253460       2.17654188       7.41991820
H        5.51520498       3.85637816       7.39996737
H        5.37052037       4.38526933       4.80800932
Al       3.87418122       3.89874650       7.41047666
H        3.88272226       0.25266061       7.42525929
H        2.38775344       0.79737861       4.86224690
H        3.07039172       3.84973423       5.99471971
8
Lattice="4.340848922729492 0.0 1.300370454788208 1.9719513597952414 3.8710114557357462 1.2981503009796143 0.0 0.0 7.889284133911133" Properties=species:S:1:pos:R:3 pbc="T T T"
Sc       5.63698867       2.95995156       4.30650448
Mg       0.88740559       0.04795029       4.37647862
Sc       2.45067849       1.00701773       7.04563713
Pd       2.06830293       3.43380345       8.31641217
Pd       1.67888139       0.53324134       1.73535101
Pd       4.82852514       2.46422459       7.00155932
Pd       3.25984687       1.50279281       4.35003950
Zn       4.04377510       1.98369097       1.73079167
4
Lattice="3.1795969009399414 0.0 4.079706559423357e-05 0.0006024092135627593 4.244240241214378 -0.00037965018418617547 0.0 0.0 4.257483005523682" Properties=species:S:1:pos:R:3 pbc="T T T"
Ti       2.43470218       0.22550936       0.81241272
Ir       0.84441237       0.22532831       2.94118002
Ru       0.84389835       2.34800379       0.81129206
Ga       2.43448890       2.34675636       2.94070207
16
Lattice="7.390380382537842 0.0 4.179641246795654 2.5207692694461903 6.94973859295001 4.178905010223389 0.0 0.0 8.632963180541992" Properties=species:S:1:pos:R:3 pbc="T T T"
Ge       2.87574226       5.47324945       7.27707849
Tb       6.61886191       0.32522948       9.27071064
Tb       2.72110534       0.20051438       3.19636621
Tb       4.00061368       3.67169055       5.28178890
Ge       5.30923284       1.99811836       7.27765586
Tb       4.17850497       3.79558046       9.25327123
Tb       7.69300837       3.65136396       7.37591889
Tb       7.89805800       3.79574699      11.35739938
Tb       6.44199298       0.20172929       5.29848911
Tb       2.92620734       0.34312114       7.17845453
Te       6.57109081       5.47384347      13.68335543
Te       1.61578895       1.99949508       9.50267449
Te       2.87496916       5.47413551      11.59170198
Ge       1.61483967       1.99811484       5.18710419
Te       5.31050640       1.99790482      11.59204284
As       6.57043040       5.47340479       9.36565660
16
Lattice="3.4604105949401855 0.0 -2.861466236936394e-05 -0.00034192087156410177 6.0854167842175 0.09610290825366974 0.0 0.0 10.626441955566406" Properties=species:S:1:pos:R:3 pbc="T T T"
O        1.29339597       5.18047941       6.62575499
Bi       3.02884763       2.95172176      10.22045994
O        1.29820908       1.57718084       9.76638784
Bi       1.29669977       3.28096225       3.05546208
Er       1.29978876       6.04351366       0.99296398
Er       1.29681849       2.81998653       6.47987831
O        1.29639174       5.49057196       3.18906816
O        3.02852804       4.33750533       1.32839781
Bi       3.02695750       0.05908927       4.62069508
O        3.02756803       1.31792019       6.59414232
Bi       3.02707933       5.65835022       8.07755214
O        3.02795599       3.43253749       7.95341073
O        1.29683420       4.48970227       9.89699223
O        3.02612328       1.40839875       1.27803355
O        3.02583477       3.68347382       4.64069172
O        1.29590843       1.55818016       4.48061321
12
Lattice="4.681950569152832 0.0 -1.2596107721328735 -1.1673394435198936 7.83131591445699 -4.341475963592529 0.0 0.0 9.288300514221191" Properties=species:S:1:pos:R:3 pbc="T T T"
Dy       0.29714303       6.32071481      -0.14408566
Er       0.78144724       2.18219373       1.64485416
Er       3.78133207       3.65128455       3.45061082
Dy       3.30057101       7.79161930       1.66733138
Er       2.04018620       4.98230754      -2.99670437
Pb       2.93286722       4.42250566       0.31058739
Pb       3.52919802       0.41889430       2.53034371
Pb      -0.03562516       3.18803296      -1.37169454
Pb       1.15194168       5.53461289       3.00952784
Pb       1.71430983       1.73686334       5.10518144
Pb      -0.56854632       6.78460496      -3.35476158
Pb       2.62689904       1.07323274      -0.81150556
8
Lattice="5.501021862030029 0.0 1.6980866193771362 2.5208987727856704 4.8994783542782105 1.691596269607544 0.0 0.0 9.942475318908691" Properties=species:S:1:pos:R:3 pbc="T T T"
Sr       3.31599062       1.89108785       4.49677829
Ag       6.29051474       3.70933484       4.62771903
Mg       2.28136644       1.26028222       7.90089398
Sr       7.26092066       4.30085987      11.37661482
Sr       5.32283321       3.11734138       7.81827309
Sr       1.24783417       0.62894933       1.36943005
Hg       0.22516961       0.00387640       4.73842451
Hg       4.33678398       2.51569949      11.06841468
14
Lattice="6.71061897277832 0.0 -2.9077770709991455 -2.699739525970599 6.579957718500702 -1.5512298345565796 0.0 0.0 9.010078430175781" Properties=species:S:1:pos:R:3 pbc="T T T"
Nd       4.23477539       3.90696402       1.45081364
Nd       4.54955449       3.16331248       4.92515285
Nd       0.83466318       1.25359327       0.23301027
Zn       1.70446962       2.81994269       6.62665165
Nd       3.83296345       5.46069493      -1.76632734
Nd       5.91016546       0.77744948       2.97167820
Nd      -0.06001208       6.54342897       3.23538693
Zn       2.69822587       5.68494478       4.21166249
Nd       0.77275742       5.02822192      -0.02339432
Nd       4.05838679       1.20228942      -0.96200604
Nd       1.13352723       3.02364716       3.46303566
Zn       0.08308521       4.82696495       5.95326806
Ir       3.16948617       1.30165641       2.15253861
Ir      -0.95173178       3.46165797       1.55807126
4
Lattice="4.611620903015137 0.0 2.657529592514038 1.5399633354052182 4.347506388295946 2.657512664794922 0.0 0.0 5.324662208557129" Properties=species:S:1:pos:R:3 pbc="T T T"
Sr       0.78132108       0.00163536       3.43775170
Li       2.31954370       1.08834341       6.09987301
Hg       5.39541598       3.26352610       6.09525312
Pb       3.85757752       2.17629838       3.43392028
4
Lattice="3.8033576011657715 0.0 -1.3762099742889404 4.084398547100275e-05 4.3088507650346894 -0.0030990696977823973 0.0 0.0 5.945794105529785" Properties=species:S:1:pos:R:3 pbc="T T T"
Pr       2.58627496       4.24941985       3.26936826
Tb       3.64216201       2.09404831       0.23782035
Ge       0.94001839       2.09337453       4.66423700
Pt       1.55207936       4.24983026       0.40343045
6
Lattice="3.6924283504486084 0.0 1.0232021808624268 1.4850011119624886 6.072042510914295 1.8195672035217285 0.0 0.0 7.13840913772583" Properties=species:S:1:pos:R:3 pbc="T T T"
Sm       1.45719905       5.08794419       7.95337073
Sm       3.89157837       2.71460996       6.35264655
Pd       1.55524126       1.35705155       7.60319271
Pd       2.30987973       0.37498026       4.88480071
Dy       2.89802743       2.35216903       2.77955253
Dy       2.45260749       5.45552659       4.38744777
9
Lattice="5.414409160614014 0.0 2.3745908737182617 2.7206855802331797 5.200578218583033 1.188811182975769 0.0 0.0 7.385529518127441" Properties=species:S:1:pos:R:3 pbc="T T T"
Sn       4.26230564       2.16564562       5.65179460
Pd       4.76013852       3.05368274       8.22147426
Ca       5.41958134       0.45356842       2.99002866
Ca       1.37026958       0.45312244       4.87632098
Sn       5.24973878       3.94364096       3.40269574
Sn       6.97209191       3.94053622       6.84166944
Sn       2.54275492       2.16683469       2.21191973
Pd       3.39564750       0.45267200       7.62635977
Pd       2.05254343       3.05196515       7.03433256
12
Lattice="3.350039005279541 0.0 -0.5662834048271179 -1.7029685056138535 5.730658706042897 0.11002188920974731 0.0 0.0 10.244484901428223" Properties=species:S:1:pos:R:3 pbc="T T T"
Ni       1.63141728       0.98679967       9.82025833
S        1.14982004       3.99089623       6.96812279
Ni       0.77312441       3.88166261       4.72045234
Ni      -1.32750488       5.30696364       2.48705752
S        2.00750013       1.05359436       1.82328773
S        1.64915349       5.25828185      -0.33191182
Rh      -0.47148072       2.43213887       7.55272679
S        0.39443132       3.82563186       2.47422998
S        2.48397580       2.39495155       4.64517147
S        1.26050627       0.86153787       7.57451363
S       -0.94989094       5.35709234       4.73844844
S       -0.08058907       2.47004059       9.89074743
10
Lattice="3.8660213947296143 0.0 0.007189344149082899 -0.003841036563808142 7.638370024999951 0.00045403794501908123 0.0 0.0 7.6443867683410645" Properties=species:S:1:pos:R:3 pbc="T T T"
Tb       0.20111032       7.33271623       0.11739448
Mg       2.13757987       2.21399996       1.41687926
Mg       2.13272788       6.03299626       5.24305723
Tb       0.20308949       3.51403112       6.53541387
Pd       2.13477970       3.21698467       4.23555042
Tb       0.20256774       4.73641046       2.71716330
Pd       2.13504194       7.03872632       2.42287263
Pd       2.13774893       1.21150264       6.24475908
Pd       2.13525036       5.02911739       0.41755992
Tb       0.20365173       0.91419070       3.93752855
20
Lattice="5.919601917266846 0.0 -0.3550603687763214 -1.1634618795843972 7.054627333948723 -1.839794635772705 0.0 0.0 7.810503005981445" Properties=species:S:1:pos:R:3 pbc="T T T"
P        4.57711301       1.04642067       6.22199301
P        0.73659156       1.39611020       5.90120334
P       -0.75210386       6.08536084      -1.11624128
P       -0.32251185       4.12314763      -0.12592575
P        4.51809988       1.72380745       1.56193632
P        4.76339683       2.97484889       3.32315156
P        2.17604450       6.96941575       0.54344630
P        2.95294369       4.84235420       1.03374823
P        0.20042276       5.73393165       2.87897654
P        4.03670134       5.07057815       2.99798543
Ni       3.30437559       5.90801013       4.97965345
Ni       3.73556745       2.89470062      -0.12823401
P        0.65585497       0.90284517       1.93629884
P        1.47463593       6.48628827      -1.56331123
P        3.30041362       2.02480735       4.62764866
P        0.98021141       4.07634810       1.70343007
P        2.83398329       3.85393740       5.83008578
P        0.65643206       3.59415957       5.74861948
Ni       1.79095476       0.65130508       3.85097622
P        1.90778336       1.54964172       0.03195366
8
Lattice="5.016750335693359 0.0 2.905421018600464 1.6760364214431431 4.727844584668201 2.908494234085083 0.0 0.0 5.804119110107422" Properties=species:S:1:pos:R:3 pbc="T T T"
Zr       2.02682405       4.65322045       7.90976204
Zn       3.69944744       2.29046524       5.00661903
F        4.53733928       1.10407755       3.55065175
F        2.86260732       3.47394938       3.55372697
F        2.86152499       3.47318006       6.46242164
F        2.02182630       1.10237618       5.00370816
F        5.37566684       3.47360530       5.00938087
F        4.53717182       1.10338164       6.46313430
4
Lattice="3.233551502227783 0.0 -0.005340053699910641 -0.009500073439303574 4.5557528625905706 -0.0007491192081943154 0.0 0.0 4.557944297790527" Properties=species:S:1:pos:R:3 pbc="T T T"
Hf       0.01171491       0.83127204       1.77738376
Ta       0.00716398       3.10881529       4.05589346
Re       1.62818939       0.83123694       4.05200784
Re       1.62288089       3.11027429       1.77531775
12
Lattice="4.619502067565918 0.0 1.6088236570358276 2.019367249560958 4.152319932743931 1.6093801259994507 0.0 0.0 7.415060043334961" Properties=species:S:1:pos:R:3 pbc="T T T"
Fe       2.63888882       0.30669498       7.84809727
Fe       2.80770702       3.30172925       3.67065597
B        3.40346911       3.67510431       5.62889345
Dy       3.60077468       0.90834641       5.08522787
Fe       4.12767725       2.66851071       7.31184112
Fe       0.79676963       0.61379072       5.70539815
Fe       5.09366035       3.30039276       4.46499012
Fe       1.78659088       1.20742598       2.85402910
B        1.19717424       2.29451270       4.54207352
Fe       4.56449259       1.51171939       2.31829856
Fe       1.79477019       2.66896289       6.50139754
Fe       2.30069654       2.98514547       8.79035030
12
Lattice="4.791801929473877 0.0 -1.7725836038589478 -1.3197425026964995 4.810485720484487 -1.9743731021881104 0.0 0.0 6.567312717437744" Properties=species:S:1:pos:R:3 pbc="T T T"
Tb      -0.07100626       2.51881841       0.67842097
O        1.22059404       4.55617008       1.34047391
O       -0.20754413       2.07062508       3.13442289
O        0.39002242       3.86261117      -1.14807605
Mo       3.10662228       0.27959929       1.10062187
Mo       1.39286581       1.22073485       3.82189822
O        3.38475346       4.24479026      -0.18052307
O        2.78388500       2.45093974       4.10133150
O        3.74827240       0.46857931      -0.65243330
Tb       3.24929795       3.79517979       2.27791830
O        1.95852989       1.74223101       1.61635993
O        0.74585277       1.03261852       5.58371379
4
Lattice="3.54594087600708 0.0 -0.014687268063426018 -0.018110686154855903 3.543786501479799 -0.006445177830755711 0.0 0.0 10.049370765686035" Properties=species:S:1:pos:R:3 pbc="T T T"
Ce       2.25270486       1.78230754       2.46470266
Tb       0.49034946       0.01172690       4.92695954
Tb       0.48818233       0.00977439       0.02251493
Sm       2.25396184       1.78208956       7.48671055
3
Lattice="3.227437734603882 0.0 -1.134956955909729 -0.6279078243355443 3.8692704544968266 -1.7957446575164795 0.0 0.0 5.172019004821777" Properties=species:S:1:pos:R:3 pbc="T T T"
Ag       1.15084942       3.52984130       1.14052907
Li       2.64439623       0.94263228       0.23456124
Bi       0.27734800       2.22634614       3.82425201
8
Lattice="5.167288780212402 0.0 0.0027341488748788834 0.003406205270222612 5.171111892389627 7.991176971700042e-05 0.0 0.0 10.339868545532227" Properties=species:S:1:pos:R:3 pbc="T T T"
Sm       4.05673131       2.80525124       5.84378565
Sm       1.47165259       2.80477874       3.27583904
Sm       1.47224206       2.80285913       8.41453159
Pr       1.47024768       0.21814673       0.67444001
Sm       4.05614104       2.80502254       0.67434865
Sm       4.05369515       0.21913360       8.41410263
Sm       4.05248264       0.21877491       3.27626113
Sm       1.47079802       0.22017100       5.84439055
4
Lattice="4.542239189147949 0.0 2.6176445484161377 1.5111650691456193 4.291635530966804 2.615013837814331 0.0 0.0 5.24600887298584" Properties=species:S:1:pos:R:3 pbc="T T T"
Li       4.40388239       1.26957131       3.54711937
In       2.88851022       3.41769692       6.16857658
Sn       1.37643448       2.34365253       3.55036724
Pb       2.89047154       0.19929446       6.17152207
6
Lattice="5.292397975921631 0.0 -1.418015956878662 -3.1206617281766285 4.274886729063359 -1.4206488132476807 0.0 0.0 5.470558166503906" Properties=species:S:1:pos:R:3 pbc="T T T"
Sn       0.15164139       2.20741204      -0.28587036
Cr      -1.59465447       3.97816597       3.77293723
Cr       2.60921327       1.83607142       3.77697662
Sn       0.80104948       0.06828210       2.45847030
Sn       3.33340490       1.47254944       1.04044853
Sn       0.86323566       3.61041833       2.36496604
14
Lattice="6.031919479370117 0.0 0.5762280821800232 2.0197068515983565 6.6635099216918 -0.025153083726763725 0.0 0.0 10.415387153625488" Properties=species:S:1:pos:R:3 pbc="T T T"
Er       3.45349533       4.76482487       8.24421484
Sm       3.72705073       2.85018505       5.35037306
Ho       5.01434645       4.29263049       2.44603267
Ho       6.58340551       3.80980451       7.12942642
Er       2.44001709       1.43344285       8.26670164
Ho       5.58162469       0.46806096       7.12445951
Er       1.09927213       0.00351128       0.71417659
Ho       6.31020705       5.70602985       9.99344301
Er       4.00408298       0.94594568       2.46919427
Ho       0.87432551       1.90141485       3.64406446
Mg       5.28277996       2.37550673       9.98193963
Ho       2.13667911       3.35065737       0.74310051
Mg       4.74231026       6.19296621       5.36686671
Er       1.85848237       5.22977991       3.60558731
4
Lattice="2.7403111457824707 0.0 0.42061370611190796 1.3419294225169551 2.386605252736297 0.4248619079589844 0.0 0.0 9.085006713867188" Properties=species:S:1:pos:R:3 pbc="T T T"
Fe       3.18436900       1.93272492       4.49755382
Pt       0.14269096       0.15231831       6.01109470
Pd       1.14230012       0.73948325       8.61687314
Pt       2.14137963       1.32549072       2.14139201
9
Lattice="6.633408069610596 0.0 0.4919368624687195 2.5348517911127137 6.539733391932134 1.8641289472579956 0.0 0.0 7.581663608551025" Properties=species:S:1:pos:R:3 pbc="T T T"
W        1.96831075       1.10273748       0.95365998
Cl       2.88763934       6.29869175       1.87250158
Cl       7.27908323       2.89715230       8.74263293
Cl       3.40725923       2.45720039       2.35840862
Se       1.49693202       0.61933815       3.37332126
Cl       6.83938372       2.17293653       4.67370812
Cl       3.29447834       1.38187968       6.67546266
Cl       2.61174521       5.50280510       5.39201793
Cl       5.69163215       5.72657282       3.49393373
12
Lattice="5.817819118499756 0.0 -1.8612003326416016 -2.7265905072441687 5.128745002627866 -1.9464436769485474 0.0 0.0 6.47395133972168" Properties=species:S:1:pos:R:3 pbc="T T T"
F        4.56637257       1.05288215       1.44279360
Ag      -2.20066118       5.11124171       1.36112828
Cd       0.62963091       2.56270936       0.27581688
F        2.66986354       3.58235368       0.60763329
F        4.40155436       1.54511504      -1.91075394
F        2.50781775       4.07238448      -2.74231892
Ag       3.53872594       2.56344685       2.58539433
Ag       3.45790675       0.01290319      -0.80876795
F        1.41523216       1.50819051       2.15680023
F       -0.15952907       3.61633068      -1.60369293
F        1.60296661       1.00763685      -0.97276483
F       -0.34864632       4.11658277       1.51968575
9
Lattice="5.757115364074707 0.0 -0.02502434141933918 2.8625534852967007 6.106609033866562 1.219950795173645 0.0 0.0 8.652382850646973" Properties=species:S:1:pos:R:3 pbc="T T T"
K        4.69994886       2.92669183       5.36601783
As       1.82051975       2.87787034       3.39349354
K        4.69794061       2.95476214       1.52103741
K        7.56813483       5.20859418       5.78257016
Tl       1.82558482       1.74338240       7.75812875
As       4.68790504       5.25210498       7.78118620
Pd       1.82329982       1.01389953       4.97544135
Tl       1.81899261       0.30854351       2.18993946
K        7.56911673       5.19577509       9.62674149
8
Lattice="3.6572484970092773 0.0 -0.8710427284240723 -0.22458237418647373 3.6996703200330976 -0.9059510231018066 0.0 0.0 8.211713790893555" Properties=species:S:1:pos:R:3 pbc="T T T"
Cr       2.70914450       2.93983570       6.28812289
Mo       1.33711629       3.43425762       0.45956895
Rh       0.17601097       0.21093005       3.68930347
Mo       3.27055764       1.57612361       0.45979688
Rh       0.49153570       2.52271730       5.07201533
Cr       2.42206988       0.65869955       5.03678144
Rh       1.88355733       2.05091430       2.76475054
Rh       1.01075867       1.10998339       7.25856370
8
Lattice="4.7046217918396 0.0 0.009282180108129978 0.004633203604618486 5.376309305780979 0.012513481080532074 0.0 0.0 6.1998186111450195" Properties=species:S:1:pos:R:3 pbc="T T T"
As       0.60598029       4.71171252       0.51865188
F        3.61882850       5.29567404       0.52152793
F        3.51729928       3.10164126       4.93519142
As       3.92806284       2.02671113       3.61680429
F        1.03816757       0.40300755       5.40197883
F        0.92754406       2.60413428       3.60499763
F        3.49365264       3.10143456       2.31339108
F        1.01483944       0.41805831       1.81464178
8
Lattice="6.692190647125244 0.0 -0.002782918978482485 0.002292077055173057 6.2895908947646655 -3.625701665878296 0.0 0.0 7.264169692993164" Properties=species:S:1:pos:R:3 pbc="T T T"
Nd       0.74502297       5.34629974       0.54370954
Pr       4.09114407       1.15739860       0.53647966
Br       5.77022739       3.26257315      -0.65675471
Br       5.77064513       1.13285913       2.95786202
Br       5.77093758       5.35695371       2.94508766
Br       2.41196674       5.36002030      -1.86135696
Br       2.41076035       1.13510799       5.37814220
Br       2.41013315       3.26143273       1.73525886
12
Lattice="4.207183361053467 0.0 0.0008173186797648668 0.004021064993791225 8.232290239573423 -2.096055507659912 0.0 0.0 9.365519523620605" Properties=species:S:1:pos:R:3 pbc="T T T"
Ag       0.24035502       7.18186019       7.23685659
Sr       2.34147609       1.32748252       7.13220141
Tb       2.34340952       5.27294292       5.41378543
Sr       0.23963529       6.29899045       1.30292492
Se       2.34374460       5.78799198      -1.11018836
Tb       0.23780301       2.35801686       3.02383872
Se       2.34055827       0.49680667       3.85497236
Ag       2.34229525       0.45092385       1.19718356
Se       2.34327699       4.33524232       2.63440290
Se       0.23720592       1.84247098       0.17779221
Se       0.23857665       3.29204715       5.80204802
Se       0.24079139       7.13085519       4.58072354
10
Lattice="5.019763946533203 0.0 -2.8407464027404785 -3.3546869030251116 4.699695905348683 -0.13884076476097107 0.0 0.0 5.7662529945373535" Properties=species:S:1:pos:R:3 pbc="T T T"
Ba       1.64794174       2.83272856       0.05278040
Ba       3.32686476       0.48209832       3.00576784
O       -0.83477793       2.79406000       4.30939514
O        1.56584648       2.77249776       2.93890288
O        0.77152720       0.54690291       4.34963934
Os      -0.02309612       1.65756171       2.95186023
Zn      -1.69892530       4.00901786      -0.00024439
O       -0.81640618       2.76832195       1.55479882
O        3.40968272       0.54113727       0.12495797
O        0.78940240       0.52178474       1.59147436
4
Lattice="3.8789732456207275 0.0 -0.004243704490363598 -0.0026637722380747453 3.9761617797650506 -0.001497051795013249 0.0 0.0 3.9780471324920654" Properties=species:S:1:pos:R:3 pbc="T T T"
Ir       2.30992795       2.71693132       3.65016855
Nb       0.37221342       0.72765383       3.65349557
Pt       0.37075817       2.71563044       1.66285654
Ir       2.31174581       0.72957671       1.66219668
4
Lattice="3.74637770652771 0.0 -0.0007790394593030214 -1.8916352952143894e-05 3.747236251783309 0.002191819716244936 0.0 0.0 7.408121109008789" Properties=species:S:1:pos:R:3 pbc="T T T"
Ho       1.97861865       1.28347544       5.82324135
Li       0.10606239       3.15704063       0.18483216
Ho       1.97934237       1.28408765       1.95217301
Tl       0.10602219       3.15737856       3.88715431
10
Lattice="4.475403308868408 0.0 -2.3279552459716797 -2.2281899729580488 4.864831722683948 -1.356836199760437 0.0 0.0 5.044632434844971" Properties=species:S:1:pos:R:3 pbc="T T T"
H        2.90111264       2.86825649       1.86360676
H        0.66695221       0.63753448       0.50389155
Pd      -0.08598425       1.75152333      -0.78109707
Ag       2.89973027       1.74691301      -0.65540971
Ag       0.67046416       4.18268624       0.50692788
H        0.65772087       0.42506366       3.02592688
H        0.67372263       3.07064097       3.03318245
Pd       1.40573059       1.74875415       1.80106531
Pd      -0.82156166       4.18005770       2.95881428
Pd       2.16547522       4.18366430      -1.95447637
11
Lattice="6.060276031494141 0.0 -0.9483758211135864 -3.2441652679713684 5.123094900614299 -0.9471663236618042 0.0 0.0 6.540717124938965" Properties=species:S:1:pos:R:3 pbc="T T T"
Li       2.77722484       4.72558456       4.13584964
Hf      -1.75271647       3.88337686       1.81454173
S        2.02131445       3.54716790      -0.23460010
Li       2.88311904       1.33286208       5.08265140
S        0.54961517       0.87159671       3.85917289
S        2.29283108       0.06196357       0.71426640
Hf       1.35045600       2.17435798       1.81086074
Cr       4.45079304       0.46686391       1.81149565
S        3.63687057       2.50958659       2.91266780
S        0.52841190       4.35214057       2.85995100
S       -0.92803301       1.70362393       0.76664016
8
Lattice="3.829341411590576 0.0 -0.5754290819168091 0.460536320436766 4.528699441242084 -0.8332726359367371 0.0 0.0 5.829914093017578" Properties=species:S:1:pos:R:3 pbc="T T T"
Ho       1.13946552       1.97461778       0.81829974
N        0.74251915       2.47792710       4.36188333
N        2.15810590       0.35175779       4.98764652
N        3.07950962       3.35276085       0.90478556
Ho       0.22021740       0.03944758       3.88109320
N        3.10300122       0.82677373      -0.34708658
N        2.19708475       4.19511456       1.24664201
N        1.03106813       2.22120171       3.13953285
9
Lattice="4.1427812576293945 0.0 0.006981002166867256 0.01180346711474939 7.594258195481845 -4.372601509094238 0.0 0.0 8.756139755249023" Properties=species:S:1:pos:R:3 pbc="T T T"
Tl       1.28573223       2.71778851       2.48576029
Tl       1.29056054       5.25853807      -1.89823257
Ca       1.28302158       0.19316056       0.16307812
Ca       3.35373009       0.18784751       3.40146020
Ca       3.35934691       3.19795405      -0.15511856
Ca       1.28754867       1.97587384       5.83439835
Ca       3.36322934       4.77600764       4.22375222
Ir       3.35660255       0.18748787       6.86362473
Ca       1.29299394       5.99294865       1.45423613
4
Lattice="4.41787052154541 0.0 2.5318572521209717 1.4732390277864906 4.17157084011589 2.5305514335632324 0.0 0.0 5.092812538146973" Properties=species:S:1:pos:R:3 pbc="T T T"
Lu       2.63584479       1.36352218       3.03219771
Y        5.58224123       3.44918849       8.11008817
Zn       4.10645454       2.40382923       5.57233319
Hg       1.16149913       0.31850694       5.58579947
14
Lattice="5.535347938537598 0.0 1.8987315893173218 1.2471195893140241 5.380060258003336 2.219517946243286 0.0 0.0 8.348762512207031" Properties=species:S:1:pos:R:3 pbc="T T T"
O        1.28035609       2.58023047       9.62110781
La       2.37788701       1.09978903       4.94612929
O        3.90203825       2.20491589       9.09426221
I        2.37692491       1.09594957       9.11743164
O        1.98359819       1.58318188       7.31371283
O        2.10060187       5.37213089       3.02082205
O        0.91476041       2.91687161       4.95966650
O        5.08618391       4.65967732       7.15754996
La       5.64199267       4.02404855       4.84834480
La       5.89088727       3.54895337       9.15881297
O        1.98032690       5.04353392       7.26522245
O        4.72416980       4.98979750      10.82745265
O        4.01648566       2.53267108       4.83944029
O        2.77054908       0.61197173       2.57399429
20
Lattice="7.88819694519043 0.0 -2.1801741123199463 -2.7953664081305623 7.352065805300748 -2.116602897644043 0.0 0.0 8.176068305969238" Properties=species:S:1:pos:R:3 pbc="T T T"
Cd       2.28623779       5.98965708       0.05452879
Cd       0.07469646       2.33719719       2.67633453
Cd       0.99994054       5.31961717       3.01688017
Hg       5.03034159       1.82120655       1.48365703
Hg       2.24240982       7.02536300      -2.83800219
Cd      -0.14554087       1.43189399      -0.15797493
Cd      -0.70543152       6.49410475      -1.84342672
Hg       2.40072278       1.08758668       6.24793782
Cd       1.28585538       4.03654812       5.99107771
Cd       5.94130071       4.79958342       0.84782390
Cd       4.94853232       2.86897736      -1.40053470
Cd       5.01218985       0.75485543       4.48283995
Cd       6.22469335       3.53032084       3.82783144
Cd       4.81046146       5.80336916      -1.99800760
Hg       2.30728607       0.08868305       3.08611993
Ag      -0.32899443       4.42201192       0.41769664
Hg       2.45197336       3.05555844       0.63360096
Hg       3.00479566       3.07759222       3.76617374
Hg       4.24218111       5.79093737       3.07985634
Hg       7.63167094       0.39660906       2.70975763
10
Lattice="3.558380603790283 0.0 -0.48442554473876953 0.007017027296328245 4.367036427131875 0.005461342632770538 0.0 0.0 13.054346084594727" Properties=species:S:1:pos:R:3 pbc="T T T"
Ga       3.12872417       0.74528073       9.38602555
Tb       2.70705525       2.92337764       6.33421856
Au       0.16366899       2.92287344       1.12135656
Tb       2.11650023       0.73487333       2.12594395
Pt       1.31340482       2.92760978       9.38670620
Au       0.54386506       2.92284637       3.85057643
Ga       1.65484596       2.92131922      11.86695372
Au       3.46905776       0.73582725      11.88360509
Au       1.06611468       0.74438167       7.61858695
Ga       0.71828213       0.74225844       5.10957881
20
Lattice="6.245038986206055 0.0 -1.0256139039993286 -1.6956891370631417 5.7113419816260595 -2.059852361679077 0.0 0.0 9.513470649719238" Properties=species:S:1:pos:R:3 pbc="T T T"
Ca      -0.16227599       4.40160995       1.26605215
V        3.06558237       5.54643519       0.57586194
V        5.08087017       2.90392486       6.64224350
Ca       5.90262010       0.63513909      -1.07791841
Sr       2.12768750       0.25263746       6.50913824
O        1.62088128       4.92304123      -0.13389345
Pt       0.17489386       1.81585111       2.96262779
Ca       1.80739209       3.88703852       7.26281106
O        4.87147995       2.98711561      -1.16628412
O        2.45125229       5.15301911       5.58004039
Sr       2.96158810       3.28771788       3.82265194
O       -0.66131518       4.40363274       6.92693468
O        3.46968906       2.36703754       6.11194833
O        1.65095182       0.98628827       4.08384468
O        0.51576492       3.72110059       3.41582133
O        4.78310517       1.52838848       3.19545937
O        0.27710390       1.86067046       7.47247956
O        4.22399024       5.65464836      -0.82298555
O        1.06546307       2.12912340       1.33441709
O        3.76217567       4.54333124       1.75790950
4
Lattice="3.4423859119415283 0.0 0.7279357314109802 1.6480384775805992 3.0241331173738235 0.7226934432983398 0.0 0.0 8.601961135864258" Properties=species:S:1:pos:R:3 pbc="T T T"
Hg       1.28707644       2.35021814       0.97533576
Ce       3.59584811       1.67661769       7.12162802
Ce       0.77305086       0.00291159       3.43530648
N        2.18501162       0.83996374       5.27683881
16
Lattice="3.6973354816436768 0.0 -0.0034213163889944553 -1.849794048865519 6.176236368169976 0.0018181729828938842 0.0 0.0 13.02182388305664" Properties=species:S:1:pos:R:3 pbc="T T T"
Sc       0.26665397       0.41308994       9.27296401
S        0.26668315       4.77052658       9.99845331
S       -1.58416839       5.38638296       6.91857686
S        0.26840475       1.53497110      11.71586524
Cu       2.11143935       3.82152991       5.19412080
Ho       2.11355397       0.40725886       5.19131005
Sc       0.26542099       0.40059709       1.13434577
Sc       0.26422189       3.56612445       7.64423860
S        0.26396291       2.44485545       5.20743973
S        2.11415130       1.98965756       8.45999137
Sc       0.26586905       3.57123155       2.74976530
Cu       2.11710698       0.15364625      11.71980292
S        0.26659489       4.76147015       0.40060498
Ho       2.11506621       3.56480102      11.70256143
S       -1.58507254       5.38448928       3.48903379
S        2.11477578       1.98548055       1.95001308
10
Lattice="3.5272605419158936 0.0 0.0008967344765551388 -1.7604938074743184 6.313939142149273 -0.5220210552215576 0.0 0.0 10.254007339477539" Properties=species:S:1:pos:R:3 pbc="T T T"
Sc       1.32594501       3.02778425       2.68370671
Sc      -0.43231386       5.94745464       3.01120435
Sc       3.09289722       0.90029951       1.01580822
Sc       1.33240568       4.53747801       5.34029571
Sc       1.32612881       5.72248680       8.09184196
Sc      -0.43528582       1.85182436       5.22533579
Sc      -0.43485929       4.29550676       0.16819611
Se      -0.43551018       3.64745174       7.43834952
Sc       1.32750169       2.07911459       8.73046767
Se       1.32583185       0.29204109       6.51694060
4
Lattice="3.945556402206421 0.0 -1.930085301399231 -0.9574111444982313 3.8250066095006052 -1.9458974599838257 0.0 0.0 4.9145426750183105" Properties=species:S:1:pos:R:3 pbc="T T T"
Li      -0.31284915       3.09454759       2.78326521
Li       2.14042566       1.18092521       2.79031662
Li       0.91382499       2.13798975       0.32933101
Cd       3.36828625       0.22503141       0.33791747
8
Lattice="4.273047924041748 0.0 -0.0027773650363087654 0.001971820305760613 6.897064880794209 -2.3588900566101074 0.0 0.0 7.340838432312012" Properties=species:S:1:pos:R:3 pbc="T T T"
Bi       2.41920463       3.67276165       5.01079686
Pb       2.41860065       0.22295988       2.52009948
Li       0.28164838       0.22014902       6.19238770
Pb       0.28303439       3.66847062       1.34393464
Se       2.41960159       1.88795604      -0.00382052
Se       0.28368163       5.42438022      -1.23582242
Se       0.28359994       1.91815770       3.92243173
Se       2.42153723       5.45579955       2.69212104
20
Lattice="5.092758655548096 0.0 0.762941837310791 0.7165600887186645 6.368145038507925 1.0801066160202026 0.0 0.0 7.599366188049316" Properties=species:S:1:pos:R:3 pbc="T T T"
La       4.07970729       5.32739166       6.73448087
C        3.85523100       2.14970030       6.55792580
Na       1.10908623       1.17576660       7.84580997
C        1.55746778       5.71081153       4.45136527
O        3.37166335       3.56067985       2.67828869
H        2.60963282       4.71932875       1.62187319
O        3.26057972       1.06189302       6.96254823
La       1.66607044       2.25505005       3.95498507
O        4.92313553       4.41650016       8.91431065
H        4.16651588       0.94705362       3.36987973
O        5.13148654       2.29022622       6.63407275
C        4.59372542       3.55145628       2.21838781
O        3.59770468       0.81861485       4.15198546
H        1.30691118       4.85375838       8.32175419
O        0.36541734       2.72273715       1.84991860
O        1.20185578       0.14724058       2.45470086
O        2.25087776       5.22602342       8.41483505
O        0.85567925       4.62811480       4.21322551
O        1.78075607       5.98644842       5.71749944
O        3.11789854       3.10242850       6.04495321
12
Lattice="4.6959075927734375 0.0 -1.623295545578003 -1.0807649703883877 5.36474498027959 -3.0746517181396484 0.0 0.0 6.3102545738220215" Properties=species:S:1:pos:R:3 pbc="T T T"
F        0.49461728       2.30058436       3.05298536
F        2.35717610       3.51420519       1.63353357
F        2.33806460       3.50337127      -1.78480263
Rh       1.19958083       4.14187099       3.08747281
F        0.03929936       4.77411517      -1.76823305
Fe       1.73974806       1.45944158       1.47063034
F        0.06015766       4.78005702       1.65317879
Li       1.73935240       1.46407320       4.63072432
F        2.66611466       0.71929378       3.02995305
F        2.98333310       0.62325055      -0.11126347
Li       1.19886834       4.14491930      -0.06488699
F        0.80919521       2.20361282      -0.08335307
12
Lattice="5.423392295837402 0.0 2.015622615814209 2.34252121012635 4.888300579282407 2.0161237716674805 0.0 0.0 8.336482048034668" Properties=species:S:1:pos:R:3 pbc="T T T"
Li       4.60202366       4.82973584       2.96879447
Ni       5.56279440       2.02134133       8.70864616
V        1.34813907       2.78187981       3.41910446
O        5.15204148       3.40496418       9.81045468
O        6.18312828       2.40760709       7.02570918
O        5.67055912       3.71135532       4.45635821
Ba       2.47204598       3.49353402       8.72209148
Ba       4.47887328       1.34070909       3.30261818
O        2.82474688       3.71020471       3.40954768
O        4.03284973       1.05836821       8.84485306
O        1.70882175       1.38640845       2.43836560
O        1.21479598       1.06056962       7.78811346
4
Lattice="2.8929193019866943 0.0 -0.001147485221736133 -0.002408795471235487 2.8961817737829256 -0.0013531687436625361 0.0 0.0 5.780920505523682" Properties=species:S:1:pos:R:3 pbc="T T T"
Zn       2.17807993       0.90440083       4.95716923
Zn       2.16412111       0.92220926       2.06322586
Ni       0.73054099       2.36388588       0.61936076
Ni       0.73178304       2.37225531       3.50772128
10
Lattice="4.009941101074219 0.0 -0.00312309549190104 -0.0033270807321685593 5.5281042577426245 -0.003638589521870017 0.0 0.0 5.5269598960876465" Properties=species:S:1:pos:R:3 pbc="T T T"
Fe       2.16295713       2.88037741       4.38859421
Ca       0.16025105       0.11181375       4.38839399
Ta       2.16380532       0.11885593       1.62498097
O        2.16088551       3.93414269       2.60812415
O        2.16485980       1.10221062       3.34212616
Ca       0.15745604       2.88072470       1.62778190
O        2.16297431       4.66155369       5.43875535
O        0.16063524       0.11875137       1.62773439
O        0.15691150       2.88049504       4.38965842
O        2.16377565       1.83688480       0.64692634
8
Lattice="6.051288604736328 0.0 2.9466159343719482 2.3210651878502375 5.5841513024651 2.944432497024536 0.0 0.0 7.6886420249938965" Properties=species:S:1:pos:R:3 pbc="T T T"
La       5.65735222       1.49991096       9.21184264
Cl       1.50432396       0.08844281       4.81122332
Cl       0.92645294       0.98917422       0.96868279
Ca       3.79201818       4.29435045       5.36611006
Cl       3.75701846       2.91453165       2.97599433
Cl       4.33337006       2.01512175       6.81807320
Cl       7.16547464       3.79466837       8.76663953
Cl       6.46901892       4.78987767       4.91122723
10
Lattice="4.225658416748047 0.0 0.8291283249855042 1.9568410622582904 7.511132326549744 1.2395446300506592 0.0 0.0 11.2695951461792" Properties=species:S:1:pos:R:3 pbc="T T T"
Sr       5.40823292       5.89925746      11.06921047
Cu       3.03229199       3.82521281      11.99881999
Sr       2.70820334       0.90008835       2.37816191
Sr       1.94625330       2.40368183       6.29385503
Sr       1.95859433       6.36461082       6.25392016
Sr       1.22651006       1.97527880       9.99706774
Ag       2.81715333       6.38338863       1.84481813
Cu       3.66632114       7.08447130       8.75647278
Sr       4.68700839       4.26446893       3.48850470
Ag       3.68614245       4.31174409       8.62773779
12
Lattice="5.351683139801025 0.0 -1.4223119020462036 -0.23600218288314476 5.374137829237247 -1.3834866285324097 0.0 0.0 7.960354804992676" Properties=species:S:1:pos:R:3 pbc="T T T"
Al       4.45145263       2.04343763       0.29308585
Sc       4.78245966       0.41741774       5.52140171
Sc       2.03247031       3.17222812       1.63920376
Sc       3.28234621       4.46265581      -1.10055963
Sc       0.75268965       1.79682115       4.29937055
Al       3.31367054       0.69739784       2.90738319
Ga       2.37392971       1.51183198       6.90049951
Ga       4.86363913       4.23678445       1.55812621
Hg       0.43337283       3.28678384       6.92102800
Ga       3.52505153       2.90123085       4.18100067
Hg       1.03194794       0.30144979       1.68583005
Ga       1.72723156       4.71985674       4.20620643
8
Lattice="5.123011589050293 0.0 0.015378125943243504 0.012670658884689196 5.079769544560615 0.014694279059767723 0.0 0.0 10.33728313446045" Properties=species:S:1:pos:R:3 pbc="T T T"
Ba       4.48399820       2.83178503       6.77288045
Hg       1.91744440       0.29298207       6.69938414
Hg       4.47904025       0.29162708       9.38614560
Ba       4.48528489       2.83456998       1.63529227
Bi       1.91768437       0.29315119       1.99594926
Hg       4.47753870       0.28925196       4.32390950
Hg       1.92257924       2.83244358       9.40081992
Bi       1.92539176       2.83087186       4.13372332
9
Lattice="4.14254903793335 0.0 -1.029675841331482 -0.7036596041830103 7.707477141291505 -2.8653595447540283 0.0 0.0 8.939997673034668" Properties=species:S:1:pos:R:3 pbc="T T T"
As       2.99348076       0.03956963       2.11384971
Sr       1.55029434       6.26260955       5.19586825
In      -0.23473250       3.63243962       6.84508094
Sr       2.40239257       1.88867465      -0.27448573
As       3.96946850       0.77897601       6.09246734
Sr       0.74977753       6.33814341       1.92206193
Sr       1.26182239       2.09448282       4.00934795
Pb       2.28161247       4.94605599      -0.79711438
As       3.25968447       4.42184863       3.20164152
8
Lattice="4.814524173736572 0.0 2.585265874862671 1.720215000049734 4.49947564379145 2.5879435539245605 0.0 0.0 5.794762134552002" Properties=species:S:1:pos:R:3 pbc="T T T"
Cd       1.33185977       1.36491688       1.98585919
Ti       4.60013720       3.61553222       7.47130205
F        2.35870256       0.60286371       3.84200263
F        2.79985479       3.06954181       7.60826455
F        6.40170715       4.16047830       7.33322544
F        5.12339925       2.12837021       8.51055921
F        2.68371167       0.13177536       6.46175749
F        4.79737007       2.60068382       5.88968639
5
Lattice="4.78550386428833 0.0 -1.6646734476089478 -0.5617376789614924 4.759273914807568 -1.6645488739013672 0.0 0.0 7.681748867034912" Properties=species:S:1:pos:R:3 pbc="T T T"
Hg      -0.38254937       4.32911564       1.55020181
Hg       1.06101349       0.56208125       5.73118112
Bi       4.07272760       1.25531602      -1.03561950
Bi       1.39243333       3.63636241      -1.03947871
Cs       2.73207628       2.44287177       2.79986768
16
Lattice="7.883634090423584 0.0 0.0016255135415121913 2.6156078671962466 7.557425022441522 -0.002674488117918372 0.0 0.0 9.104263305664062" Properties=species:S:1:pos:R:3 pbc="T T T"
I        8.77190579       5.65544244       7.50572954
La       2.28662117       3.99640652       0.80763702
La       7.37734358       7.31115713       5.09280503
La       3.51629417       7.25990676       2.95044410
La       7.38037134       7.30978639       0.80900501
I        3.52368770       1.87678083       7.50591785
La       2.28408519       3.99880836       5.09699296
Ga       4.83427290       5.65366223       0.66616558
I        7.46420265       1.87953290       5.26319559
Ga       4.83125791       5.65386764       5.23454705
I        3.52296027       1.87440681       2.95142731
Ga       8.77374470       5.65494604       2.95393058
I        7.46322872       1.87382695       0.64401907
La       3.67546165       7.28217379       7.50153631
La       5.98720601       4.02700251       7.50444076
La       6.14500200       4.04492396       2.95149317
6
Lattice="4.010875225067139 0.0 0.002040020888671279 -2.0071451877993245 3.472007421208138 0.0035113180056214333 0.0 0.0 4.967296123504639" Properties=species:S:1:pos:R:3 pbc="T T T"
Ni      -0.07878101       0.41855453       3.16695381
Ti       1.92307331       1.57724642       4.46243428
Ni       1.92327545       1.57698525       1.97548298
Ni      -0.08296692       2.73351410       3.17366468
Ni      -0.08184205       2.73315194       0.78528982
Ni      -0.08040208       0.41895075       0.77711832
12
Lattice="5.396703720092773 0.0 0.00013357824354898185 -2.695529433102565 4.674983963556911 0.001419534906744957 0.0 0.0 8.896163940429688" Properties=species:S:1:pos:R:3 pbc="T T T"
Y        1.43016245       0.18051874       5.69623476
Y        4.12941798       1.73899167       1.40241875
Y        4.12983682       1.73903960       4.59861563
Al       2.75852875       2.53122364       7.44949640
Al       4.12786569       0.15336783       7.44821015
Os       1.43108733       3.29847234       0.75726642
Os       1.43240469       3.29815245       5.24612621
Os       0.05894344       4.08886271       2.99986629
Os       2.80868640       4.09451152       3.00412064
Os       1.43020429       1.70795666       2.99949380
Y        1.43085816       0.18090882       0.30155812
Al       0.10590481       2.53254751       7.44969152
8
Lattice="4.995008945465088 0.0 -1.6983026266098022 -0.5805583488320388 4.963200930970155 -1.6960020065307617 0.0 0.0 8.215907096862793" Properties=species:S:1:pos:R:3 pbc="T T T"
Tb       1.03280028       1.14266142       0.25639216
Tb       3.07721055       3.44235014      -1.90635618
Hg       1.20082832       4.13881017       0.77571532
Hg       2.05374287       2.29379882       3.28138589
Nd       4.26145568       4.77343320       1.58766109
Hg       0.12046133       2.92486803       5.78963417
Hg       2.90626832       0.44166299       5.79169162
Hg       3.98998146       1.65994628       0.76887210
6
Lattice="4.007617950439453 0.0 0.004514997825026512 0.0009507526096946521 4.014850503881707 0.0030322824604809284 0.0 0.0 5.196627616882324" Properties=species:S:1:pos:R:3 pbc="T T T"
La       2.72365791       2.91522733       1.94300539
As       0.71956108       0.90958059       3.34207007
H        2.72382412       2.91605580       4.71836470
H        0.72028916       0.90906794       0.48800917
Ru       0.72035223       2.91669761       4.77644046
Ru       2.72386602       0.90911436       4.78526465
4
Lattice="4.450681686401367 0.0 -2.1693804264068604 -1.0520645666933965 4.324559718144049 -2.1646766662597656 0.0 0.0 5.620323181152344" Properties=species:S:1:pos:R:3 pbc="T T T"
In       3.44489583       0.92553196       3.06963187
Cd       0.69294966       3.08900765       3.07242148
Ho      -0.68090260       4.16896367       0.26405779
Ce       2.06827868       2.00662053       0.25972110
5
Lattice="3.794419050216675 0.0 -0.0005393432220444083 0.00035102743320192633 3.7936987714490873 -0.0014102631248533726 0.0 0.0 3.9092442989349365" Properties=species:S:1:pos:R:3 pbc="T T T"
V        1.12669759       0.13674692       2.30515303
Fe       1.12744216       2.03389066       0.35192620
N        1.12684110       0.13683493       0.35278077
Fe       3.02342761       0.13758390       0.35295782
Ir       3.02328944       2.03449305       2.30680915
10
Lattice="5.3858642578125 0.0 1.6239724159240723 2.3676083877807335 6.010683545102487 1.8166333436965942 0.0 0.0 9.697649955749512" Properties=species:S:1:pos:R:3 pbc="T T T"
In       4.37045212       3.23346214       3.05578865
In       3.18722729       0.20754831       6.99771866
Sn       1.30938750       3.13519516       3.47001080
Sn       2.46558188       2.07647240       9.34338668
Ba       3.34058269       4.07263906       6.45008365
In       4.05903860       0.36051975       4.12645463
Ba       7.45960983       5.55863165      12.23896992
Sn       1.73644725       0.47504967       2.08126921
Sn       5.24847013       3.39236433       9.85886830
Sn       5.97049932       1.53184886       7.50366523
8
Lattice="4.011404037475586 0.0 -0.007663285825401545 -0.014685478037282065 6.493747795049056 -2.2957189083099365 0.0 0.0 6.990408420562744" Properties=species:S:1:pos:R:3 pbc="T T T"
S        2.78690350       0.67808198       4.59470976
Sm       0.77759831       2.23885242       5.77482312
S        2.78076972       3.80048344      -0.04207248
Li       2.78354800       2.23807618       2.27365854
La       0.77041046       5.48389767       1.13264085
S        0.77301554       3.81678244       3.46302668
Sm       2.77556440       5.48402888       4.62270330
S        0.78065449       0.65770132       1.09752749
5
Lattice="3.335529327392578 0.0 -0.9973044395446777 -0.29968632814072843 3.3255932924114386 -0.9985791444778442 0.0 0.0 6.158594131469727" Properties=species:S:1:pos:R:3 pbc="T T T"
K        2.75595216       1.54023960       2.91636478
O        0.44235862       2.66313559       1.23747943
Zn       1.84418215       2.37334549      -0.16559108
O        1.73280868       0.41889617      -0.56248428
Li       0.33236534       0.70968421       0.84015223
12
Lattice="5.725750923156738 0.0 0.013255822472274303 0.01352249427919685 6.987063197054936 0.027642931789159775 0.0 0.0 9.872634887695312" Properties=species:S:1:pos:R:3 pbc="T T T"
La       0.75395150       3.95772574       2.80223968
La       3.60900430       0.46470754       7.73110599
Pr       3.61967454       5.72849180       4.48415687
Pr       3.61298659       2.19541927       1.13005136
Er       0.74753525       2.22029576       6.08825061
Dy       3.61678633       3.96123943       7.73970737
Er       0.75712432       5.69666249       9.38836132
Dy       0.74779098       0.46449613       2.78518018
Er       0.75842959       5.69998876       6.10575482
Er       0.74969101       2.21979726       9.36991829
Er       3.61302873       2.20537832       4.43689898
Er       3.61948206       5.70574301       1.17689087
8
Lattice="4.480539798736572 0.0 0.0014590255450457335 -0.00045138413875265036 4.767882325740253 0.0013928809203207493 0.0 0.0 8.408585548400879" Properties=species:S:1:pos:R:3 pbc="T T T"
Er       2.25047021       0.90072072       0.39682609
Sm       2.25096157       3.28474160       2.90744533
In       0.01132663       3.28428320       5.54797663
In       0.01095744       3.28430764       0.33661905
Ni       2.25181595       3.28425393       7.17975484
Sm       2.25160607       0.90026169       5.41261594
In       0.01167149       0.90104505       2.85959239
Ni       0.01075793       0.90084257       7.16491835
6
Lattice="3.4209885597229004 0.0 -0.6627547144889832 0.00018942818744719397 5.478547092977573 0.0009996469598263502 0.0 0.0 9.203280448913574" Properties=species:S:1:pos:R:3 pbc="T T T"
Sc       0.89219678       2.96623569       5.27062382
Pr       2.79681991       0.22632769       5.94506180
Sc       2.00611739       2.96742661       1.84131373
Pr       0.49427073       0.22764528       3.19740516
Sc       3.18361286       2.96536936       7.95291918
Sc       1.65114062       0.22537909      -0.00217691
12
Lattice="4.203177452087402 0.0 -0.9715973138809204 -0.3234036950889 8.409623978649341 -1.475827932357788 0.0 0.0 9.477871894836426" Properties=species:S:1:pos:R:3 pbc="T T T"
Pr       0.41454975       5.29134728       5.84757965
Pr       1.75768037       6.73416995       2.11807704
Pr       0.55656027       1.02634049       6.51215048
Pr       3.28705578       4.00122722      -0.79342457
S        3.95360899       4.66559450       2.05488140
Ge       2.61161194       3.18070746       5.79167086
Ge       4.08947175       0.43550014       2.68142329
Pr       3.08945920       8.02794114      -1.69003278
Pr       1.93881529       2.58477646       2.93078661
Ga       1.24904434       1.80999224      -0.01702256
S        2.42245042       7.35944003       4.93973969
Ge       1.08742499       6.01488694      -0.75574239
10
Lattice="4.222883224487305 0.0 -0.005864878185093403 -0.002089883953863187 4.226002176421368 -0.0018299095099791884 0.0 0.0 9.492831230163574" Properties=species:S:1:pos:R:3 pbc="T T T"
Sm       0.29976116       4.12729303       1.28245803
P        2.41187860       2.01356965       0.13704744
Sm       2.41376616       2.01247696       5.84341659
Ir       0.30167489       2.01314157       8.31080221
Ir       0.29990601       4.12773686       4.61753722
P        0.30101880       4.12543510       6.99047289
P        0.30142938       2.01396739       3.56351041
P        2.41204520       4.12740412       3.56092231
Pd       2.41277946       4.12578019       8.30887890
Ir       2.41332914       2.01363200       2.50992578
12
Lattice="8.338415145874023 0.0 -0.4841981828212738 -2.0633437493006572 7.846808398817939 -3.8414106369018555 0.0 0.0 8.814172744750977" Properties=species:S:1:pos:R:3 pbc="T T T"
Dy       3.11766820       3.07296859       5.71359134
I        4.43891798       5.94533283       1.26103053
Te       4.06245384       0.10748094       7.41947177
Dy       3.04868467       3.17281896       1.16939779
Te       6.01491069       7.18134054      -1.02893416
I        1.13006378       4.02476690      -1.00547739
I        1.69433074       0.24840763       5.46110144
I        1.20510833       4.18510314       3.46210763
Te       5.22551548       2.58147833      -0.99300271
I        1.40192925       0.49664017       1.15570229
I        4.91730766       2.25041224       3.37800970
I        4.12320294       6.12634964      -3.15026878
15
Lattice="7.062891006469727 0.0 -3.7772562503814697 -4.548637157015208 6.590185659635403 -0.007673208136111498 0.0 0.0 8.461698532104492" Properties=species:S:1:pos:R:3 pbc="T T T"
Er      -3.21788080       5.98458772       6.20364786
Er      -0.94334173       2.69092883       6.20909609
Na       2.58793904       2.68971938       0.08955548
Se       3.69119884       1.21340550       2.47763797
Se      -2.33140954       4.16526071      -0.26107025
Se       3.57703692       1.13708552      -2.29659423
Se       1.48577636       4.16685903      -2.30022795
Na      -0.94312628       2.69107810       1.97863037
Er       0.31511298       5.98565065       4.31591389
Na      -3.21738066       5.98665231       1.97370208
Se       1.59899522       4.24282962       2.47739855
Se       0.12920631       1.00002757      -0.25237569
V        2.58923373       2.68936232       4.32084167
Se      -2.01591437       4.38166010       4.20919389
Se       0.44540438       1.21619914       4.21804375
8
Lattice="4.2824554443359375 0.0 1.4496982097625732 1.8522195741547585 6.368073365059369 0.28097277879714966 0.0 0.0 10.625557899475098" Properties=species:S:1:pos:R:3 pbc="T T T"
Te       4.35851175       5.40606295       8.79032185
Pb       1.83203391       1.22995455       1.85534839
Te       1.10136700       3.41534504       5.81022224
Br       3.67329264       3.01600647       3.42709568
Au       3.95071168       1.22951302       7.88377573
Br       1.84268215       5.81807165       0.54591680
Br       2.85593755       6.34789332       4.96900719
Br       2.61339163       2.47863503       9.63652819
4
Lattice="4.076430320739746 0.0 2.349086046218872 1.3587682725945738 3.8455779087839885 2.3498730659484863 0.0 0.0 4.706708908081055" Properties=species:S:1:pos:R:3 pbc="T T T"
Sn       3.29645352       3.10068895       4.72473544
Tm       0.57864360       1.17776063       4.72770207
Rh       3.29604067       0.21616493       4.72620065
Pd       1.93815201       2.13907626       2.37300645
20
Lattice="4.023671627044678 0.0 -0.01654994487762451 -0.03669958046649598 10.20576172798932 0.16493533551692963 0.0 0.0 16.030454635620117" Properties=species:S:1:pos:R:3 pbc="T T T"
Sb       1.81323591       8.43741622      13.04081382
Sb       1.82996208       4.87632706      16.00926706
Sb       3.85144319       0.74887957       7.10281442
Se       1.83293153       3.29061075      13.72366649
Se       1.81039080       6.77764019       2.63969493
Sb       3.82371095       8.04334883       1.21741009
Sb       3.85014379       1.52673359      14.58545478
Se       3.82110919       8.42146327       6.22875570
Se       1.82100078       6.51568696      10.47481556
Sb       3.83847608       5.12654537      11.59409614
Se       1.80467722       9.93386687       9.12235156
Se       1.83893967       1.57095732       5.32737733
Sb       1.83932938       1.87958685      10.37420881
Se       3.84427668       3.51459444       1.09752438
Se       3.84414255       3.16326818       8.99669757
Se       3.85525658       0.33068178      12.15870783
Sb       1.80902108       9.27781280       4.43997792
Se       3.85426296       0.03676266       2.40201602
Se       3.83212160       6.67383560      13.88340519
Se       1.81499970       9.62824970      15.46637235
4
Lattice="2.717257261276245 0.0 -0.0035499853547662497 -0.0015590104405005668 3.7396668522364176 0.00043895255657844245 0.0 0.0 5.338494777679443" Properties=species:S:1:pos:R:3 pbc="T T T"
Ru       2.22187969       1.61059740       3.39090503
Rh       0.86325643       3.47982967       4.73014183
Cu       2.22211818       1.60963503       0.72380816
Rh       0.86134540       3.47995026       2.05926411
11
Lattice="7.076749324798584 0.0 -1.0011574029922485 -3.7510145212333157 6.003316472549897 -1.0075018405914307 0.0 0.0 8.554898262023926" Properties=species:S:1:pos:R:3 pbc="T T T"
Se       4.14862319       2.87081933       5.93832853
Se       2.49501475       4.04855702       2.59543981
Se       0.74975972       0.89745026       6.91828494
Sb       1.62354190       2.47434880       4.75418674
Rb       3.43589309       1.46624689       0.47902535
Rb      -0.19273417       3.47992178       0.47830041
Ho       5.21905443       0.47942249       4.75810804
Se       2.62489570       0.12066910       3.57670909
Ho      -1.97479184       4.46862096       4.75523627
Se      -0.90765280       2.07883152       3.57498249
Se       0.61669498       4.82762232       5.93670951
12
Lattice="4.8846330642700195 0.0 1.5100456476211548 2.2198430547848025 4.344936189426735 1.508612036705017 0.0 0.0 8.687362670898438" Properties=species:S:1:pos:R:3 pbc="T T T"
Er       3.14132817       0.73852514       9.71153497
Er       2.14994603       0.13238742       4.23603818
Co       1.99208600       3.01990310       4.78015328
Er       4.52262113       1.58208014       5.22386570
Co       5.13147270       1.95550935       7.75116704
Co       2.60554225       1.94791351       6.97747894
Co       5.69224682       2.29921185      10.12806660
Er       3.37508965       3.86877000       8.97032003
Co       3.81777439       2.71042290       2.98648647
Co       1.48390913       2.71140469       2.27072165
Co       6.19676218       4.05835149       8.48890369
Co       0.32294656       0.44339996       1.47789203
10
Lattice="4.614188194274902 0.0 -0.0011734672589227557 -0.0011220811835388248 4.615210873575278 -0.00027694026357494295 0.0 0.0 10.57586669921875" Properties=species:S:1:pos:R:3 pbc="T T T"
Rh       0.90646919       2.30861831       5.82165209
Sb       3.21430951       0.00149494       0.53742785
Sb       0.90455956       0.00000256       4.49671279
Sr       3.21190911       2.30788300       3.21383873
Rh       3.21299829       2.30868131       9.79269578
Sb       0.90686004       2.30871734       0.54185089
Rh       3.21339419       0.00046490       5.82448071
Sr       0.90678347       0.00096996       8.44234092
Sb       3.21332702       2.30838669       7.15736197
Rh       0.90590357       0.00050121       1.85535611
8
Lattice="4.103639125823975 0.0 -0.0017588244518265128 -0.002848888434433369 5.663675545391461 -1.8689322471618652 0.0 0.0 8.602218627929688" Properties=species:S:1:pos:R:3 pbc="T T T"
Er       3.90177760       3.37108688       7.06878770
Er       3.90350343       0.68018743       3.76422493
Ga       1.85173709       1.59115197       5.77581422
Sn       3.90378257       0.12377683       6.97344847
Er       1.85160002       1.15029948       0.48664352
Er       1.84952114       3.83994723       3.78769587
Sn       1.84987985       4.39451138       0.57756329
Ga       3.90249803       2.92839482       1.77330850
11
Lattice="3.9924252033233643 0.0 -0.5678871870040894 -0.07982344230718413 3.992267898460598 -0.5711532831192017 0.0 0.0 14.201203346252441" Properties=species:S:1:pos:R:3 pbc="T T T"
Dy       3.94827801       0.56658944       0.47948696
Dy       2.89886446       3.57475373       7.38659953
Dy       0.41851638       3.08307599       4.28504540
Rh       1.74152681       2.38578542      13.48696570
Si       3.23901891       1.88043843       9.75409055
Rh       2.63774830       1.26890378       5.55370985
Dy       1.44884374       0.05325722      11.45445148
Si       2.07394317       2.73176498       1.61338915
Rh       2.27721873       0.89930637       3.02792190
Si       3.56547951       2.21272044      12.00854697
Si       0.80665474       1.43479480       6.98256686
13
Lattice="4.612464427947998 0.0 1.5614253282546997 2.660387163669724 6.002540136884858 2.025501251220703 0.0 0.0 7.326462268829346" Properties=species:S:1:pos:R:3 pbc="T T T"
Zn       3.18269721       1.60287529       4.58463000
Zn       3.32017133       4.36919976       3.99482405
Au       3.29412310       3.58825634       6.67018723
Pd       5.59795677       3.98100388       9.79498666
Pd       3.35818111       5.37470084       8.89981644
Au       5.53524673       2.12088780       7.67183418
Pd       5.73476167       4.95498532       7.05746458
Pd       0.89856929       0.29484943       3.84842447
Zn       5.74382698       5.74177415       4.50098692
Zn       0.89581326       1.31726421       1.42810031
Au       3.15816066       0.70631187       7.19601709
Pd       5.50079123       3.06998301       5.01451880
Pd       3.24114637       2.45634540       2.10981917
8
Lattice="4.432214260101318 0.0 -1.1435664892196655 -2.786067808984214 6.46031197864635 -1.691092610359192 0.0 0.0 9.10391616821289" Properties=species:S:1:pos:R:3 pbc="T T T"
Ag      -1.40232144       4.32521618       0.64563013
Ag       2.19202764       2.90597241       5.38708512
Rb       1.27956152       1.74134819       1.90004958
Rb       1.75489260       6.18800084       3.66592356
Se      -0.30080542       3.43376313       4.89283791
Se       0.89779378       5.49126457       0.39765020
Se       2.79671209       1.80789255      -1.37585304
Ag       0.40748559       3.42969570       7.62632608
12
Lattice="6.873350143432617 0.0 0.00486756069585681 0.14537054879193953 7.214112603660582 -0.0013129253638908267 0.0 0.0 8.814366340637207" Properties=species:S:1:pos:R:3 pbc="T T T"
Br       2.27475937       0.50924773       5.86058186
Ga       0.47431934       5.19824279       5.73991977
Dy       3.83462965       1.59217913       7.95469644
Br       5.45899021       2.71990688       1.21538501
Br       2.09025540       4.01865919       3.45621728
Br       5.58573551       6.51355032       8.00091120
Sn       0.46899849       5.19642520       1.36163931
Br       5.72831735       6.38075250       3.47232508
Sn       3.83576357       1.59069081       3.57401675
Br       2.21403472       0.46004103       1.21791940
Br       2.22977971       3.88569582       8.00651857
Br       5.39640130       2.67552886       5.86875229
4
Lattice="3.1277966499328613 0.0 -0.0006791191990487278 0.00034173855273255814 4.227839456098212 0.0009805947775021195 0.0 0.0 4.228283882141113" Properties=species:S:1:pos:R:3 pbc="T T T"
Al       1.07798459       1.48310961       3.54521459
Al       1.07916949       3.59628165       1.43337650
Pt       2.64233186       1.48333880       1.43199115
Re       2.64197799       3.59574717       3.54792411
12
Lattice="5.834437847137451 0.0 0.0029710030648857355 -0.0017359095414205526 7.181429176335142 0.002259772038087249 0.0 0.0 9.988410949707031" Properties=species:S:1:pos:R:3 pbc="T T T"
La       5.02444697       3.62839381       3.95029036
La       5.02539727       0.04083694       3.95073533
Pr       2.10575713       0.03842477       8.93492157
Nd       5.02657109       1.83432087       7.27389277
Pr       5.02215646       5.42309577       0.62051585
Y        5.02340508       5.42674230       7.28361063
Pr       2.10756566       1.83532336       2.27319977
Pr       2.10600285       3.62999085       8.93893857
Y        2.10526669       5.42596239       2.28231009
Nd       2.10462188       5.42406615       5.63331092
Y        2.10753324       1.83205907       5.61473536
Y        5.02538747       1.83371048       0.61147721
14
Lattice="6.6040849685668945 0.0 0.002196977147832513 -0.00046761706710133087 6.046105366743472 -2.6653976440429688 0.0 0.0 8.186274528503418" Properties=species:S:1:pos:R:3 pbc="T T T"
Au       0.51439742       5.42648250       4.39116924
Ho       0.51467214       2.67924374       6.35001701
Ho       2.16498473       3.13624173       3.29984139
Ho       3.81666023       3.59121350       0.24486839
Ho       2.16552147       0.11277843       4.63202455
Hg       3.81731158       2.42723662       5.78205183
Au       3.81589679       0.84519614       2.20804529
Ho       5.46706759       3.13581504       3.30007356
Ho       0.51491344       0.50665284       1.42955435
Ho       5.46674127       0.11258431       4.63448431
O        0.51579696       1.65797953       4.03615844
Ho       3.81742329       5.76693724       5.16680887
O        3.81671946       4.61686043       2.56254440
Hg       0.51381959       3.84649951       0.81703593
11
Lattice="4.956847190856934 0.0 -1.1080079078674316 -0.3327860329025543 4.9536637828080945 -2.885817289352417 0.0 0.0 6.466529846191406" Properties=species:S:1:pos:R:3 pbc="T T T"
O        2.74553088       0.80664882       0.52803393
Cu       0.01649074       2.66795989       4.07520225
H        2.54293062       2.71479927       3.46598681
Os       4.41287105       0.99514043       0.09111434
K        2.19707386       4.27963847       0.28671944
O        0.15279410       1.15292390       3.02299121
O       -0.14436693       2.72363821       1.11414429
O        3.19944231       2.72747691       2.59972220
O       -0.07058160       4.30718252      -1.39800805
O        1.75902205       2.60222703       4.46839858
O        4.41467096       0.78607198       4.82014039
4
Lattice="4.0078840255737305 0.0 2.312655448913574 1.33640468725882 3.7789348477131828 2.3114871978759766 0.0 0.0 4.62725830078125" Properties=species:S:1:pos:R:3 pbc="T T T"
Sc       0.45627669       0.62536850       1.82173453
Ir       1.79167484       1.56954812       4.13280318
Sc       3.12778051       2.51429343       6.44518956
Pd       4.46405267       3.45929608       4.13187043
10
Lattice="5.565365314483643 0.0 0.02752690576016903 -0.010482464129671618 7.570472612567642 -2.6477174758911133 0.0 0.0 8.444287300109863" Properties=species:S:1:pos:R:3 pbc="T T T"
Rb       0.35655255       5.56918797       5.16451555
Rb       2.71195433       5.57549985       0.95982530
Pb       4.75719268       1.78808588       2.28679214
Se       5.53855275       3.62218829      -0.31094610
Au       1.54463402       1.78085901       0.16169426
Pb       3.89165596       1.78380343       6.51224313
Au       1.54040828       1.78345124       4.38453010
Se       3.09915479       7.51502482      -1.97264432
Se       3.10168926       3.62742780       3.89107889
Se       5.52916474       7.51062888       2.26419334
8
Lattice="4.035384178161621 0.0 -0.0005158676649443805 -2.0210237915923424 6.164600449067031 0.000769985665101558 0.0 0.0 9.190657615661621" Properties=species:S:1:pos:R:3 pbc="T T T"
Tb       0.24555857       2.30144111       9.06038684
Tb       0.24660404       5.97948514       7.79043914
La       2.26497522       3.18112583       6.12450559
Os       2.26422113       0.96425160       1.53181245
Tb       0.24475986       2.30084898       3.19495344
La       2.26126533       5.09345897       1.53438715
Tb       0.24604562       5.97822740       4.46553185
Os       0.24732124       1.14996887       6.12674234
8
Lattice="7.145357131958008 0.0 -1.0204938650131226 -3.75921615973391 6.067982101469895 -1.021592378616333 0.0 0.0 7.906467437744141" Properties=species:S:1:pos:R:3 pbc="T T T"
Ge       1.02923024       1.83078667       1.15390551
I        0.07117953       0.36383381       3.49158814
Ge       0.91374810       5.86358955       0.13148857
I        0.16718393       4.28349607       2.46941211
I        1.76478918       3.40767151       6.72714161
I        5.62582633       1.26260416       6.71954163
I       -1.64903657       5.55343238       6.68330268
I        3.58074211       2.14632491       2.49996602
12
Lattice="4.682034492492676 0.0 3.515414237976074 0.5261395223695723 4.656871395428493 3.5189781188964844 0.0 0.0 7.031255722045898" Properties=species:S:1:pos:R:3 pbc="T T T"
Li       4.21726745       2.31188302       8.58489320
Li       3.19385979       3.46529974       5.06167246
Pt       0.67914855       1.03085920       1.54908821
Pt       2.24702082       4.53019180       8.58114198
F        0.69410879       1.01494035       3.69575280
F        2.69224980       0.83844992       8.56794994
F        0.65219060       3.06772152       8.57904680
F        0.69733516       1.01208213       6.43297455
F        3.24301656       3.41668232       7.20456159
F        1.17403791       3.66923738       5.06990935
F        3.33461609       1.29092437       5.06106467
F        3.22466671       3.40901442       9.94964999
20
Lattice="7.758483409881592 0.0 -0.1756952852010727 -5.871472016893904 8.044299675947853 -1.349335789680481 0.0 0.0 7.6834716796875" Properties=species:S:1:pos:R:3 pbc="T T T"
Na      -2.30594800       6.17186955      -0.93346966
Cl       3.53675735       0.98563027       0.37940069
Cl      -0.23201378       0.84437820       4.32399600
Ag       5.54212550       0.90512993       2.25962212
Cu      -4.24053438       7.53572687       2.87082070
Ag       5.54786665       0.87021749       6.12260588
Cu       3.54539561       3.47997812       4.16576764
Cu       1.77329740       2.36348690       0.49593926
Cl       5.23180495       3.39284912       5.80669042
Cl       1.79462639       3.56528054       6.23455847
Cl       5.31530339       3.33122066       2.48658779
Cl      -4.20200339       6.08500786       4.61163674
Cl       1.87896147       3.50635226       2.50401123
Cl      -0.28183364       6.55570289       0.82275763
Cl      -4.14909667       6.33228262       1.05411084
Na       1.72726375       6.37609921      -1.02691340
Na      -0.23535118       3.69091663       4.27223380
Cl      -0.32490499       6.45310235       4.86908618
Cl       3.40583986       0.90260248       4.25425020
Cl      -0.16240778       1.21564935       0.45843805
20
Lattice="3.783046245574951 0.0 0.0027047786861658096 0.005339866269989155 9.461667461374871 0.3189389407634735 0.0 0.0 9.517802238464355" Properties=species:S:1:pos:R:3 pbc="T T T"
Pt       0.70347717       3.42315811       2.96067929
Li       2.59481659       2.42083461       1.68803872
Pt       0.70620121       7.73806282       0.88718982
Li       2.59540704       4.74037874       3.97888323
Nd       2.59691006       6.77309513       5.90482222
Pt       0.70613756       6.47890011       3.44667031
Pt       0.70535943       5.61483377       8.20278819
Pt       0.70426431       4.36441723       5.60753212
Pt       0.70228043       0.75070346       1.98215331
Pt       0.70364045       3.06462887       9.52930030
Li       0.70710636       9.15710066       4.68421601
Nd       2.59650105       5.26528671       1.17042928
Nd       2.59274495       0.62875544       9.00404837
Pt       2.59459410       0.30939912       5.88413959
Al       2.59588427       3.75130095       7.55021204
Pt       0.70194684       1.94964321       6.92167258
Al       2.59789001       8.30249756       2.71737088
Pt       0.70627705       8.43329383       7.58978958
Li       2.59628083       7.23915112       8.75962084
Al       2.59403687       2.15876299       4.34229775
16
Lattice="5.374392509460449 0.0 -0.0019472540589049459 -0.00020531350064919592 8.230335233034834 0.0029920944944024086 0.0 0.0 9.56755256652832" Properties=species:S:1:pos:R:3 pbc="T T T"
Na       0.61529869       0.83879868       6.61372310
Na       0.61611239       0.84201599       1.51199990
S        0.61569105       7.32432273       8.84857535
Na       3.30253041       7.70805392       8.85265423
S        0.61676074       3.71104531       6.74268356
S        3.30102628       0.74046487       6.16248336
S        0.61489057       7.83141317       4.06848944
S        0.61602866       3.71555386       1.38186750
Na       3.30309562       3.60600282       6.30128688
Hf       0.61493326       4.89852189       8.84893980
S        3.30129367       5.35425250       4.06387227
Hf       3.30009147       7.78033149       4.06443333
Na       0.61532244       4.98326965       4.06518791
S        3.30121143       4.85020798       8.84396332
S        3.30210452       0.74137799       1.96262132
Na       3.30315128       3.60927857       1.82108875
4
Lattice="2.773059606552124 0.0 0.00034962655627168715 -1.387990013694747 4.5207991142906545 -0.7801707983016968 0.0 0.0 4.799302101135254" Properties=species:S:1:pos:R:3 pbc="T T T"
Ir       0.96880831       3.51657918       0.17637440
Pt      -0.41890348       3.43936659       2.51360571
Os       0.96937995       1.17684732       1.65170684
Pt       2.35521971       1.22421405       4.09156515
