12
Lattice="168.1162872314453 0.0 1729.182373046875 198.7254541545362 49.61840192952303 1637.917724609375 0.0 0.0 1901.059814453125" Properties=species:S:1:pos:R:3 pbc="T T T"
Gd     153.95088594      37.23455118    2134.96588832
Rb      98.79460173      13.62346082    2788.54175365
Li     258.44198356      44.61497533    2410.27725424
Sc     207.09191703      26.34449765    2229.02866090
Pd      88.69373568      11.15054161    1223.31947835
Rb     135.47989439      16.80812298    2980.48899399
Pr      74.44188572       3.53202754    1646.00278157
Sr     243.89330275      20.46768366    3816.15897868
Rb     171.91580004       5.97438519    2923.64842832
Li      81.13281828      14.96739920    1415.54053102
Rb     187.02622871      43.40925511    3110.25588865
Rb     270.42025679      39.70636576    3782.41981458
4
Lattice="4.307706356048584 0.0 -2.4605700969696045 -1.407356652634633 4.073137983932865 -2.4683165550231934 0.0 0.0 4.974499702453613" Properties=species:S:1:pos:R:3 pbc="T T T"
Li       2.20936241       1.69934691      -2.44496397
Pd      -0.64241149       3.74339164      -2.44144658
Li       3.64254505       0.68792987       0.04715610
Eu       0.78635449       2.71682065       0.04588720
8
Lattice="103.03370666503906 0.0 1387.410888671875 109.28724420878143 10.732144204137413 1399.027587890625 0.0 0.0 1578.11328125" Properties=species:S:1:pos:R:3 pbc="T T T"
Br      89.84214776       0.12527044    2218.95819649
La     150.50815274       5.18788639    3283.03912935
Mn      90.47643648       3.41344223    2308.47150905
Er     134.28118943       6.64380451    2665.04501723
Cd      80.84096056       0.89017031    2082.41959111
Rb     180.67415913       8.76890803    3371.77202649
Rb     160.29352228       7.34936243    2809.90275311
Bi     101.15682710       8.77723289    2796.91934598
4
Lattice="4.004573822021484 0.0 1.187309741973877 1.8280735239659405 3.5639865937750708 1.1879771947860718 0.0 0.0 7.330432415008545" Properties=species:S:1:pos:R:3 pbc="T T T"
Tb       3.16867105       1.46187911       1.42986023
Nd       2.12240655       3.27032102       4.94528335
Se       1.71123341       0.57209703       6.32398771
Si       4.65980596       2.37388446       3.73979016
10
Lattice="1.1058541536331177 0.0 382.81805419921875 12.303243942619702 1.900151716340384 342.8524475097656 0.0 0.0 378.8250732421875" Properties=species:S:1:pos:R:3 pbc="T T T"
Rb       9.91645368       1.52333396     332.17448669
Rb       7.29359928       1.09375218     454.94569168
Rb       3.41144047       0.49858458     310.40744399
Cs      10.86849028       1.58024377     562.55976872
Li       5.89574354       0.86572548     603.85512834
Rb       6.72972685       0.97509010     335.50900468
Gd       5.31943783       0.71544044     431.32012089
Rb       4.76193968       0.72152199     231.17316761
Rb       7.79277016       1.05523420     880.48255983
Ru       1.83753734       0.14875363     481.80172720
8
Lattice="154.529296875 0.0 1190.2613525390625 115.25680964290086 6.134450266850905 1175.0389404296875 0.0 0.0 1090.9971923828125" Properties=species:S:1:pos:R:3 pbc="T T T"
Er     134.09392997       6.07588580    1679.66623490
Rb     190.87081571       5.06829932    1733.49858010
Rb      20.39160995       0.89864618     526.60561709
Rb     106.99737020       2.57111841    1319.91574117
Rb     172.70792545       2.33225125    1516.14277179
Rb      43.54550150       2.22360776     818.16606494
Rb      58.62510685       1.80716852    1351.63652905
Rb     255.81225368       5.39258331    2838.39318435
7
Lattice="7.538208961486816 0.0 37.408111572265625 13.090354954390932 4.486603723098328 35.998104095458984 0.0 0.0 43.739036560058594" Properties=species:S:1:pos:R:3 pbc="T T T"
Cs       9.27191083       1.24242973      78.42641454
Tl       8.58126073       2.15806030      63.43610047
Tl       7.45243774       2.53682070      52.83991005
Tl      17.88722509       3.98553941      76.87106257
Tl       3.18685645       0.55155116      29.39960980
K        6.95708960       2.01001805      31.12452044
Tl      14.66971426       3.42864078      52.85607519
3
Lattice="4.317066669464111 0.0 2.487628221511841 1.4374088392186761 4.067655205547851 2.4873287677764893 0.0 0.0 4.979057788848877" Properties=species:S:1:pos:R:3 pbc="T T T"
Au       2.95095850       3.13540001       7.36653713
Pb       2.95300439       0.08576094       2.38792729
Eu       1.51241803       2.11915465       4.87887654
15
Lattice="172.7130584716797 0.0 883.2962036132812 10.49065036606407 74.8531607092232 758.7775268554688 0.0 0.0 936.2291259765625" Properties=species:S:1:pos:R:3 pbc="T T T"
Na     121.13391858      42.33808376    1757.25531546
I       28.23073952      66.30527360    1250.46184811
Cr      90.33771235      53.78254164    1893.80076463
K       13.15381382      25.99575041     617.07640731
P      117.48188900       7.62594625     928.32314510
Cs      14.81765191      17.01007031     556.19911978
Ag     109.83217867      23.09173993    1204.52619754
Ga      80.02733800      40.81486363    1585.76245875
Sc      26.88619773      33.85333938     672.37967915
As     125.69839081      39.18834863    1615.55935527
Rb      68.70729368       5.41335265     801.76155215
Rb      44.71708825      11.59589115    1228.93610805
Li     152.61395847      61.98899619    2125.66798351
Rb     109.63610671      65.03614137    1246.16999548
Pt     118.88559984      20.94641716    1072.40170830
10
Lattice="5.205653190612793 0.0 1.5726141929626465 0.6886875042887655 4.073462511290537 1.4180716276168823 0.0 0.0 8.759475708007812" Properties=species:S:1:pos:R:3 pbc="T T T"
Nd       1.60807364       1.47680490       3.93033040
Nd       4.83835554       2.72242794       2.44966725
Os       4.54608477       0.26473863       3.95036151
N        1.06895758       2.30267562       7.56349521
C        1.04292892       2.00419751       6.38213328
Nd       3.71150358       2.47124905       7.33591811
C        1.15013543       3.87622881       2.48155077
N        3.31554096       3.70737058       9.68264255
C        2.26497064       3.76392001      10.45657623
C        3.79170902       0.93368152       5.35042698
20
Lattice="6.0036492347717285 0.0 -0.0843578428030014 0.004805211262122357 6.426581016813787 0.011340433731675148 0.0 0.0 8.709076881408691" Properties=species:S:1:pos:R:3 pbc="T T T"
O        4.72772685       3.05389290       6.26530953
Sr       2.52421520       2.81340274       1.42610296
O        1.72726836       5.17387160       1.95562559
Nb       5.45431627       2.50701885       8.08777422
O        0.17969994       1.96543535       1.28797507
O        0.36805777       0.85589824       7.36213750
Ba       2.45468397       5.72024270       8.13750587
O        4.54183917       4.15814855       0.19123545
Sr       5.39589252       6.03118838       1.73401481
O        1.53526359       4.06812816       4.58839503
O        3.18346696       6.26332758       5.60824453
Nb       2.45615371       5.71913223       3.78210749
Sr       5.52177142       5.41044887       5.74198427
Sr       2.38670992       2.19629763       6.12576119
O        0.74581724       0.29872073       4.11079080
O        4.16110203       4.71900791       3.43421103
Ba       5.45548374       2.50965138       3.73596413
O        3.74594152       1.50465988       8.42488794
O        3.37059065       0.94655363       2.96669912
O        1.15567390       3.51318968       7.83438463
14
Lattice="6.032611846923828 0.0 0.513247013092041 1.8076504661363515 5.804199654727201 0.4004606604576111 0.0 0.0 10.242059707641602" Properties=species:S:1:pos:R:3 pbc="T T T"
Ag       4.61117417       3.94678143       9.02528153
In       4.85965868       0.94780570       4.20406398
Tm       6.20056721       3.74719488       3.79259104
In       5.09087585       1.17817336       9.36778683
In       5.87302311       2.47224136       6.70787846
In       2.32220724       1.88710655       8.25362660
In       2.86771754       3.15131740       4.94218621
In       6.83618006       3.48821439       0.73315176
In       5.02051319       5.45532010       6.64631161
Tm       3.54423864       2.79652803       1.67916743
In       1.78140971       0.21781791       3.47243905
Ag       5.89692299       0.37382481       1.65716125
In       4.53638531       5.69743586       1.02637454
In       2.04312761       4.88863968       7.49592842
16
Lattice="7.718372344970703 0.0 -0.01167367585003376 -0.11914546476289578 8.891887690470941 -0.0039333258755505085 0.0 0.0 11.9299898147583" Properties=species:S:1:pos:R:3 pbc="T T T"
Ba       6.68881457       6.15807261       0.46275910
Ba       2.91344904       2.40464113       6.43928839
Ba       0.40874512       8.00694081       8.66215578
Ba       4.32184073       0.46709025       2.56416935
Ag       7.31171032       1.31478623       6.42856033
Ba       3.00832096       4.92984297       2.64751550
Ba       0.41059201       8.00372903       4.21147653
Ba       4.32012881       0.47094124      10.31332373
Ba       4.40787298       6.89469377       6.43671446
Ba       6.85691182       3.67022845       4.18925494
Ag       5.09435333       3.11355533       0.47476965
Ag       1.26984453       5.40990439       6.43783831
Ba       6.85915763       3.67058408       8.67388388
Ba       3.00139594       4.93041696      10.23142311
Ag       2.12935638       7.54466930       0.47190851
Ba       0.58103244       1.69549359       0.48257096
20
Lattice="6.133150577545166 0.0 1.8500235080718994 1.686263787521483 6.517311905117608 3.8224191665649414 0.0 0.0 7.653459548950195" Properties=species:S:1:pos:R:3 pbc="T T T"
O        2.23281437       2.26339945       8.44408366
Na       6.36092764       6.40565120      10.70565211
O        4.91497642       0.75615053       2.96831597
C        3.03490082       2.99908949       7.68151639
C        4.63165721       4.02548395       3.58482796
O        2.58893494       6.43803690       8.51208482
Pb       6.47805937       2.86555488       8.60235746
O        4.23935493       2.67546446       7.48600704
O        4.02873307       0.35182506       2.20059794
Pb       1.27863302       0.14895759       2.25432440
C        1.78493923       0.12371316       5.63214458
C        6.79538921       3.55139436       5.43289722
O        5.12232431       4.19116651      10.13469864
O        6.89195029       4.08654785       6.63123943
O        2.48394473       4.01956728       7.07738479
O        2.99388062       0.43041829       5.34944747
O        0.71520360       2.28196755       3.40461812
O        6.58698358       4.36579380       4.50534175
O        3.04555420       6.51435377      10.68671763
O        3.98326210       3.90544528       4.52000770
3
Lattice="129.49732971191406 0.0 969.03515625 3.903066085586204 33.675618846880106 1101.0377197265625 0.0 0.0 1101.5555419921875" Properties=species:S:1:pos:R:3 pbc="T T T"
Li     109.34746533       4.89009475    1556.81415012
Pd      58.47541613       5.28439470     750.27058140
Cr      41.22670007      23.35750956    1123.90482031
10
Lattice="4.9735188484191895 0.0 2.6852216720581055 1.7718156772987887 4.641921495922467 2.6610517501831055 0.0 0.0 5.930335521697998" Properties=species:S:1:pos:R:3 pbc="T T T"
O        1.52639289       3.88680594       3.65189851
Fe       1.73854200       3.00478332       7.51153940
Tm       5.26792016       2.00828749       6.94619848
Pb       3.33655330       0.67682865       4.57899761
O        4.09969744       0.16262375       6.68210362
O        1.99311462       1.15735949       2.94428723
Tm       3.68962959       4.34460468       3.93449057
O        1.69211410       1.60376627       5.93122344
O        4.53791628       2.48692536       4.80011275
O        3.84181088       3.47800752       7.76108060
11
Lattice="23.67759132385254 0.0 70.38137817382812 2.764254911073323 30.359412451786014 74.70849609375 0.0 0.0 71.2555160522461" Properties=species:S:1:pos:R:3 pbc="T T T"
Br       9.82659693      10.83831366     120.22670084
Cd       5.99263064      19.39057327      92.04980626
Rb      17.41928751      29.43719452     121.53549126
Mg      11.36849559      29.06606421     150.29401257
I       10.62002201      22.70370033      83.21697239
I       22.54686219      20.60755438     144.98736359
I       17.69014715      13.14709671     131.64520055
Tb       7.81262166      23.42763913     104.29631804
Rb      12.11217183      24.79331014     132.60277357
Rb      13.17465738      19.80744569     101.56461061
Rb       3.77126074      12.50595533      98.64785531
16
Lattice="10.524657249450684 0.0 0.15344499051570892 0.15695154385141502 9.289595425334827 -4.4105987548828125 0.0 0.0 13.106842041015625" Properties=species:S:1:pos:R:3 pbc="T T T"
K        0.12874604       1.40573462       8.10262320
Rb       7.21761018       1.42363086      11.35723737
K        6.64552387       8.30316682       2.47751453
Rb       6.31272514       8.27387040      -2.26128370
Rb       4.61328587       3.89910369       8.28768314
Rb       1.15977660       0.42142207       1.15096393
Na       8.74202880       1.65967917       4.68105662
Na       3.32943406       0.66690181       5.25058314
Rb       3.38240811       8.22311964       5.72465023
K        8.66285544       4.18017138       1.30318148
Rb      10.47183325       5.15316687      10.29150514
K        0.53193241       7.53300743       1.07296585
Rb       8.74562234       6.35869410       6.19332376
Rb       3.77987173       4.59025520      -0.04859303
K        5.55063686       3.82427737       4.00725569
K        1.40581840       4.08425229       4.34464377
7
Lattice="34.099952697753906 0.0 468.9662780761719 -6.55908889375371 21.94904816111844 411.3022155761719 0.0 0.0 402.883544921875" Properties=species:S:1:pos:R:3 pbc="T T T"
Rb      20.94739480      17.60342937     809.78992018
Rb       2.02618476       6.62577592     336.29184549
Y        3.18303645      19.57237638     630.36879358
Rb      31.97454767       2.55394892     690.41254548
Li      30.10133921       2.69979203     756.67921654
Rb      17.49377215      19.57031586     987.61954015
Rb       9.42143263      16.26597937     599.47214290
16
Lattice="6.179039001464844 0.0 -0.08229942619800568 0.05850780773658858 6.424851097972791 -0.02861345373094082 0.0 0.0 11.995610237121582" Properties=species:S:1:pos:R:3 pbc="T T T"
Tl       5.39171601       2.35389007       7.89167491
S        2.22996238       5.27532382      10.57135596
S        1.81244519       2.26796641       1.71514460
Sb       5.31043899       5.73324242       4.95475303
Tl       2.36168591       2.52488725      10.90696029
Sb       2.19500167       5.70551485       8.01110918
Tl       2.31325419       2.33314696       4.91166551
Tl       2.28667614       5.53030751       1.88062019
S        5.18789565       2.35504697      11.18540086
S        5.40389002       1.71041718       4.80316008
S        2.86753392       5.53468157       5.08244512
S        2.28390205       1.74734457       8.10375679
S        5.39224442       4.90037231       1.99685778
Tl       5.35084459       5.59434151      10.89044586
Sb       5.51599874       2.48360169       1.69529529
S        5.86248969       5.54413548       7.62430719
4
Lattice="47.72981262207031 0.0 376.333984375 9.816389438772147 15.476336634044126 363.8870544433594 0.0 0.0 380.44696044921875" Properties=species:S:1:pos:R:3 pbc="T T T"
Ho      41.26812083       6.17677531     478.84078026
Sb      32.49899929       8.64279223     559.60516708
Rb      18.75911731       3.93625227     421.92223389
F       40.11482873       0.49791765     523.05752862
6
Lattice="68.75560760498047 0.0 621.9891967773438 -18.659981996723225 48.503024243610426 575.4851684570312 0.0 0.0 565.0923461914062" Properties=species:S:1:pos:R:3 pbc="T T T"
Al       3.46242181       8.62659933     211.31425825
Rb       5.90869310       0.11228553     431.55009938
Ti      -0.69500162      43.15489818     810.96730796
Cl      17.48462209      39.01415722    1179.22354112
Rh      12.35143880      31.05449046     818.74603716
Pb      40.76391523      32.67430351    1256.78927835
12
Lattice="8.282658576965332 0.0 1.7530237436294556 2.462361134070078 7.301364934748082 4.641382694244385 0.0 0.0 9.142895698547363" Properties=species:S:1:pos:R:3 pbc="T T T"
Ba       7.10919891       1.46413167       3.32340711
Ba       3.70486655       2.87589085       9.81329697
I        0.72274483       0.75074909       7.68853767
I        7.02243061       6.78900085       6.27770112
Tl       2.58715280       5.44788180       7.59536212
Ba       8.58198205       5.97077805      12.14418488
Ba       4.96080589       2.24007100       6.55261159
Ba       4.36931157       5.10831330       4.46453031
I        1.44746017       3.09732843       3.43004272
Ba       7.96835767       3.89526177       8.40265569
Pt       6.13989331       4.35930656      11.01690813
Ba       5.04695470       7.02105001       9.41613855
16
Lattice="4.683656692504883 0.0 0.04689706489443779 -2.2878774156505126 6.562129188873489 -0.6033772230148315 0.0 0.0 16.91831398010254" Properties=species:S:1:pos:R:3 pbc="T T T"
Sm       3.30499485       3.22134674      11.92463106
Sm       3.30028010       1.33119879       1.78367528
Au       0.96324245       3.06159633       0.53201292
Er       0.96232824       1.61182897       9.67805580
Sm       3.30859753       0.82548680       6.76280296
Sm       0.93355371       0.40702738      12.90331137
Sm       0.98223485       5.40943643       9.85342112
Sm       0.96807152       4.82057418      14.48559642
Au       3.31972134       3.15077631       8.86645566
Sm       0.98755334       4.39709329       3.44071742
Sm      -1.34498056       5.44444483       6.95375221
Sm       0.96622521       0.58033457       4.18999214
Er      -1.35843055       4.88838810       0.75223301
Er       0.98952022       3.23117788       6.67308976
Hg       0.93714905       0.28887405      16.18143182
Sm       3.29557349       2.14318836      15.19798181
12
Lattice="7.8812689781188965 0.0 14.754985809326172 4.876435562937899 9.943758934038017 16.03595733642578 0.0 0.0 18.338638305664062" Properties=species:S:1:pos:R:3 pbc="T T T"
Ba       2.80575089       5.66107260      26.12512125
I        8.57862016       7.76998117      36.79790361
Pr       5.58080649       9.76341512      29.77132613
Se       5.76975112       9.47800263      25.06137098
Pr       6.73716805       1.46243164      22.83297045
Se       6.39869648       5.30647551      17.96273134
Ba       5.99976866       5.41723346      22.88590776
Pr       3.14631287       1.63714101       9.15195050
Se      10.84707490       6.28111136      36.35516225
Se       4.64648845       2.94224494      24.69752412
Se      11.08315175       9.76523173      29.55859574
Se       8.72126420       3.67320257      23.81177299
10
Lattice="3.719118356704712 0.0 0.009566095657646656 0.01718255880699771 7.446902956081935 0.01704435609281063 0.0 0.0 7.450646877288818" Properties=species:S:1:pos:R:3 pbc="T T T"
Y        2.81512749       2.73897044       0.07162180
In       0.96334006       5.15725280       1.38326639
Ni       0.96398256       6.03608301       4.22914740
Ni       0.95942270       4.27226212       5.99042741
Ni       0.95420609       2.31508169       2.26128386
Y        2.82581475       6.46031842       6.41870046
Y        2.81026358       0.12406730       2.68404711
Ni       0.95138131       0.54723535       0.48761506
Y        2.81603457       3.84958113       3.80588676
In       0.95370977       1.43172956       5.09927465
20
Lattice="6.855540752410889 0.0 1.9370993375778198 -0.21672421786794616 6.077720664833833 2.5434391498565674 0.0 0.0 7.256298065185547" Properties=species:S:1:pos:R:3 pbc="T T T"
Li       3.19227548       6.06668585       7.51874762
Pd       5.37637771       1.83498160       5.43993983
Li       3.11325016       0.24596441       8.21509520
Pd       5.56688034       5.06886100       8.07322432
B        1.98797701       3.49804819       8.18230419
Li       6.17698561       2.59718070       7.88727064
Pd       1.45033165       4.39051938       6.32794872
Pd       1.82553176       2.06537033       2.35453149
Pt       2.84277775       2.63458608       4.77731935
Pt       1.18468039       5.13076007       9.07004687
Li       6.81398355       0.33361032       3.50577335
Pd       4.53923865       4.66450198       5.40779800
Pd       3.67854451       4.11070041       9.89214790
Pd       0.81964461       0.80691073       4.42572191
Li       0.46338464       3.74881533       3.90908685
Pd       4.45260735       1.40717654       2.84468453
Pd       3.77624493       2.95347647       7.38681724
Pd       5.80747318       0.04906187       8.13339635
Li       6.17830085       3.38479907       3.29082556
Pd       1.34812917       1.68964310       6.95880305
4
Lattice="11.321036338806152 0.0 102.97545623779297 13.361067571001058 3.0316354258211007 101.69831848144531 0.0 0.0 112.67465209960938" Properties=species:S:1:pos:R:3 pbc="T T T"
Na      15.63340286       1.94065447     141.82302738
Rb      22.11143306       2.47237591     262.72033786
Rb       8.51496234       1.69091974     134.95826725
Rb      14.74150355       2.16517113     218.66378371
12
Lattice="22.67818832397461 0.0 44.58957290649414 0.011073781854022807 18.596266310413444 50.685829162597656 0.0 0.0 60.48161315917969" Properties=species:S:1:pos:R:3 pbc="T T T"
Te       7.07668138      13.39564692      71.92956043
Rb      10.46445502       2.95462237      80.48895187
Rb      13.87159179       1.90839759      62.32838975
Y       20.36051576      14.17782727     107.15098163
Rb      11.15560459      11.01675985      94.39096640
Y       11.15704058      18.02716936      76.15840592
Rb       4.50466330      14.72810207      50.29123065
Rb       1.53637132       4.48249985      54.48381743
Rb      19.43823276      15.99247450     132.29732493
As      17.85773637       2.11229312      69.48289706
Rb       8.62619175       9.36059506      60.55807673
K        2.84154522       5.05895507      26.12038373
9
Lattice="7.134309768676758 0.0 -0.4164111316204071 -3.6803920901696197 6.239225525703976 -1.0314496755599976 0.0 0.0 8.653716087341309" Properties=species:S:1:pos:R:3 pbc="T T T"
Br       1.74676835       1.58535240       0.90106104
Br       3.01583429       3.55047340       5.84762368
Cs       3.71742139       0.62988553       3.79937503
Br       2.18204844       5.74597753       0.01866864
Fe      -2.88564023       5.60977361       7.38205616
Br      -1.60114394       4.17475125       0.60572432
Br      -0.19558333       0.95072215       6.49168757
Ce       0.71464558       3.48100828       7.61249999
Br      -0.83604349       5.05886047       5.75503315
1
Lattice="3.0795702934265137 0.0 1.7696834802627563 1.021453758537987 2.9055454965242147 1.7715840339660645 0.0 0.0 3.555051803588867" Properties=species:S:1:pos:R:3 pbc="T T T"
Y        0.69312448       0.90776121       3.00208532
8
Lattice="3.267902374267578 0.0 533.2767333984375 1.8878253656087038 9.649862404912358 618.0241088867188 0.0 0.0 531.9695434570312" Properties=species:S:1:pos:R:3 pbc="T T T"
H        2.69112466       2.70636964    1030.32082764
Cl       1.86904957       2.21015600     625.14827498
Pd       1.47078887       5.42094187     610.84534829
Rb       4.20971442       8.11556842    1312.18731434
Au       1.11609206       5.58429951     762.96606434
Te       3.31764722       3.55006746     735.45934010
Rb       2.32436485       5.22826633     963.11754301
Rb       1.16724168       3.93952962     532.69092581
4
Lattice="3.3623831272125244 0.0 1.9612692594528198 1.1274552490143603 3.168171556052902 1.961486577987671 0.0 0.0 3.8919734954833984" Properties=species:S:1:pos:R:3 pbc="T T T"
Be       3.07924569       1.87218324       5.06653240
Ni       4.20181022       2.66390152       7.02109950
Be       0.83367140       0.28722275       1.15767466
Pt       1.95723419       1.07949406       3.11319552
4
Lattice="3.8966972827911377 0.0 1.46247136592865 1.6797231413134446 3.5152421627239048 1.4626479148864746 0.0 0.0 5.9483561515808105" Properties=species:S:1:pos:R:3 pbc="T T T"
La       2.43021489       2.68729271       4.76054203
Ga       1.28351457       1.96483981       1.88935192
Ga       3.58195285       3.41389378       7.62843724
Co       3.54070461       0.93060579       1.78282013
8
Lattice="4.265822410583496 0.0 2521.97998046875 -6.799790707504599 11.916718863158941 2217.932861328125 0.0 0.0 2496.847900390625" Properties=species:S:1:pos:R:3 pbc="T T T"
Rb      -0.36517942       6.09697217    3846.59760917
Bi      -1.99705202       4.52138586    3239.62280510
Rb      -5.80771741      11.14477374    4680.05914626
Rb      -0.85431408       2.02748496    2750.00485822
Rb       2.78797644       0.57779902    3849.23860308
Rh      -2.01542533       7.95378430    3438.75033444
Rb      -0.18555153       2.18822612    1458.80523973
Rb       0.03204167       6.91326151    4254.83666568
4
Lattice="3.8103959560394287 0.0 2.2216384410858154 1.2770003541973263 3.590701758674968 2.222726583480835 0.0 0.0 4.410764694213867" Properties=species:S:1:pos:R:3 pbc="T T T"
Fe       3.53431683       2.26020968       5.67480363
Fe       0.99186490       0.46744575       1.25170326
Pt       4.80623151       3.15913030       7.89091413
Au       2.26230968       1.36399505       3.46327791
2
Lattice="2.7661075592041016 0.0 0.001459993189200759 0.0021363132029500053 2.7658449505700355 0.0008446077699773014 0.0 0.0 3.8624796867370605" Properties=species:S:1:pos:R:3 pbc="T T T"
Pd       1.87630981       2.75590390       0.00551434
Rh       0.49167209       1.37525002       1.93457344
6
Lattice="121.58882141113281 0.0 919.5448608398438 30.409323280713576 22.407919587078993 995.857177734375 0.0 0.0 914.6016845703125" Properties=species:S:1:pos:R:3 pbc="T T T"
Bi     105.29930951      14.36408622    1945.55499495
Sn      72.64574535       5.85079783    1491.29005762
Mo      93.13619368      19.29873356    1702.04562836
Cs      58.16647016      14.17622381     941.82647279
Ag      94.90677324       9.54596872    1108.96962361
Hf     115.55334823      14.57097716    1766.59319402
8
Lattice="4.287613391876221 0.0 0.0015643612714484334 0.005171966031497949 7.015138626911242 -2.4259679317474365 0.0 0.0 7.556521415710449" Properties=species:S:1:pos:R:3 pbc="T T T"
Sr       1.58176653       0.94321385       6.63276552
La       3.72569400       0.94273080       2.85448347
La       1.58383192       4.45007913       1.64230394
Ca       3.72812669       4.45069420       5.42012247
Se       1.58597627       6.15127663      -0.88107138
Se       1.58255179       2.75047785       4.16378918
Se       3.72870603       6.16376632       2.94794744
Se       3.72758570       2.73801241       0.33414114
4
Lattice="3.723541736602783 0.0 -1.8257653713226318 -0.8934184915824377 3.612446263156265 -1.8236037492752075 0.0 0.0 4.706545352935791" Properties=species:S:1:pos:R:3 pbc="T T T"
Li       1.49318362       0.55458578       2.56642698
Sn       2.90791630       2.36137127       0.74223670
Pd       1.75321709       3.26346588      -1.60936809
Pt       0.33838746       1.45738766       0.21457267
2
Lattice="2.5674610137939453 0.0 -1.6349916458129883 -2.838671556027464 0.03852693274645814 -1.2114369869232178 0.0 0.0 2.940275192260742" Properties=species:S:1:pos:R:3 pbc="T T T"
Se       1.19790365       0.01358403      -1.22966648
Sm      -1.54886121       0.03322670       0.43300992
5
Lattice="28.31972312927246 0.0 209.9690704345703 24.521343842944248 2.079333034367263 210.7252655029297 0.0 0.0 207.52691650390625" Properties=species:S:1:pos:R:3 pbc="T T T"
Rb      43.70428204       1.66057808     439.66779882
Ag      19.61279310       0.42412078     293.28598258
Rb      20.48655095       1.27300912     227.61596307
Br      18.10365479       0.28821069     279.60376886
Rb      33.77803845       1.73802465     363.24034939
4
Lattice="2.8421013355255127 0.0 0.6051298975944519 1.3634454724589764 2.494896452750853 0.6025984287261963 0.0 0.0 7.036077499389648" Properties=species:S:1:pos:R:3 pbc="T T T"
V        3.09185978       2.13551375       4.49519251
Cr       0.71544093       0.72442707       1.64848723
C        1.90914437       1.43223489       3.05998099
Ga       2.56069134       1.81798401       7.03105825
5
Lattice="3.8190996646881104 0.0 1.3684064149856567 -0.49018047995193104 3.7876028760485343 1.3709231615066528 0.0 0.0 5.994195461273193" Properties=species:S:1:pos:R:3 pbc="T T T"
La       1.16703873       0.79717877       4.89851546
Pd       0.09014367       1.73963792       1.90426300
Cu       1.75703884       3.63786095       3.26947982
P        2.43693012       2.24220923       7.36627868
P        3.22650593       3.13974713       5.16832739
5
Lattice="3.6609420776367188 0.0 -1.4084949493408203 -0.5384828488843427 3.621026045224479 -1.4048439264297485 0.0 0.0 5.46290397644043" Properties=species:S:1:pos:R:3 pbc="T T T"
Lu       3.23816027       1.69044239       2.88178609
Si       0.72459511       3.02014224       1.80577225
Fe       2.18912301       2.59490043       0.15040384
Fe       0.62641049       0.78554194       1.55759448
Si       2.09015529       0.35899458      -0.09797997
8
Lattice="3.703402519226074 0.0 1.035213589668274 1.6134592486487518 5.1003299645406575 1.471006155014038 0.0 0.0 7.274131774902344" Properties=species:S:1:pos:R:3 pbc="T T T"
Pd       2.79892741       3.25162202       4.97586019
Fe       1.50662630       2.51362697       2.51785244
La       3.48130012       0.18906888       2.41853753
Co       2.24909574       1.15330103       6.54448882
Zn       0.79985533       0.88619463       4.52279204
La       4.01303979       3.41293076       7.81021427
C        3.31724478       2.90621280       3.12473744
C        1.89322337       1.71256764       0.91517981
18
Lattice="7.181171894073486 0.0 1.1695764064788818 1.5247878723624093 9.65210329355566 1.4412152767181396 0.0 0.0 9.566471099853516" Properties=species:S:1:pos:R:3 pbc="T T T"
K        6.60370030       2.21997028       6.33771326
K        1.09530556       3.84619196       9.08159903
Sn       3.66626400       4.58322041       6.08217200
K        2.83694551       0.98601334       6.52439996
K        2.29509433       7.63673532       2.18323779
Sn       6.82554891       0.67835867       9.64628010
Sn       5.76053590       9.06833547       2.85119788
Pb       2.62365438       6.99852647       8.22238195
Pb       6.66994611       8.36053020       6.07103170
Sn       1.91309761       1.23986221       2.32245383
Pb       6.65139029       8.16946335       9.48156720
Sn       0.92409725       5.66579281       5.69790246
Sn       5.45785264       5.43154261       8.37414240
K        5.84321589       5.37899953       3.23231145
Pb       3.47564616       7.95137477       5.41869892
Pb       4.41547636       2.68155646      10.06568257
Pb       2.33505244       4.09204790       3.19337566
Sn       5.93124024       1.43556720       2.95701773
7
Lattice="163.5592041015625 0.0 -60.12275314331055 44.49476958224749 34.727390427703604 43.74580764770508 0.0 0.0 139.4940948486328" Properties=species:S:1:pos:R:3 pbc="T T T"
K      149.12367208      25.24006279      37.68036451
Pd     197.05574824      27.22181479      15.53524186
Ti     121.38576679      29.76920178      49.03548108
Ca      15.99821528       9.08983072      92.34978239
K       54.62351004       3.80347250     117.31858198
Hg     148.31893519      28.14382683     121.71705915
Mg      25.00098882       2.44682049      -1.27839233
12
Lattice="12.614561080932617 0.0 45.91336441040039 -0.5809561808435653 6.952696184297537 56.89543151855469 0.0 0.0 52.652584075927734" Properties=species:S:1:pos:R:3 pbc="T T T"
Rb       2.43121988       0.39621479      48.70316621
In       7.38584807       4.13364604      77.70068126
Ba      10.61802155       5.37955341      87.53984252
Rb       2.09528671       1.23670522      28.00255166
Rb       9.45920980       0.96983704      63.22821695
Ir       7.89178619       5.12558041     100.14797088
Rb       3.52204762       6.03232680     112.63835733
Rb       3.72361078       5.94323339      84.20565008
Cd      10.49742968       4.52898360     108.97634800
Y        4.43940100       2.45212743      75.92605643
Rb       8.84948248       5.89852238      96.21870702
Rb      10.07400419       2.32850265      58.03415296
10
Lattice="3.7082858085632324 0.0 0.5956984162330627 1.218026934727234 7.9193596917620495 4.13883638381958 0.0 0.0 11.538893699645996" Properties=species:S:1:pos:R:3 pbc="T T T"
Dy       3.32921911       3.15185136      13.00716595
Dy       0.96503912       2.24035834       4.32328464
Br       2.17610761       7.29653134       8.47937788
Br       1.81449881       3.72320006      10.62923189
Dy       2.60381842       7.82371732       5.84692489
Dy       1.12409435       5.57064814       3.25857948
Br       2.64113671       4.68845642       5.64204721
Br       3.58572083       0.59994437      11.45911207
Br       0.52227530       1.88144656       7.00653200
Br       3.32543243       6.09134700      13.03126724
12
Lattice="121.51512908935547 0.0 852.2533569335938 -7.376394099760551 100.79918700887698 655.9049072265625 0.0 0.0 817.4733276367188" Properties=species:S:1:pos:R:3 pbc="T T T"
Rb     115.89937679      20.14907870    1214.69614819
Mo      43.45371686      45.36778294    1162.76031825
Rb      -0.62009860      12.59638063     739.63453932
N       37.38097612      31.91090424    1184.19966675
Pt      85.90595902       0.70760629     764.30118988
Rb      11.50605394      55.64932686     722.97758251
Rb      58.44558303      53.51354954     819.24898396
Br      96.28001077      75.62813901    1356.51199087
As     115.28566396       5.61530707    1158.45771235
Rb      14.34056473      13.11276930     899.21975294
Be      62.20606132      50.09818216    1296.98396714
Rb      78.51868444      42.54077074    1341.38685591
10
Lattice="165.6490020751953 0.0 2131.401611328125 308.18412900013936 41.92497672250171 2300.7041015625 0.0 0.0 2211.55615234375" Properties=species:S:1:pos:R:3 pbc="T T T"
H       85.27494693       6.05403538    1879.30750489
La      71.09114673       2.93814036    2429.92098028
Cd     320.58222858      34.01583436    4948.73758830
O      177.76863537      12.38640085    3315.10088765
C       54.45328875       6.71633441    1169.32937045
Pr     344.59500862      29.66334962    4285.21457582
P      422.49292378      40.58651090    5311.75519305
Bi     130.79831545       2.25156586    2251.41083858
Pt     353.35427760      34.41051931    5037.07002203
Ir     245.39287155      21.75515684    3851.79765031
10
Lattice="4.523975849151611 0.0 0.0023430606815963984 0.0023288858344084266 4.524575587772726 0.0019345280015841126 0.0 0.0 10.719118118286133" Properties=species:S:1:pos:R:3 pbc="T T T"
Rh       3.93641933       0.16080517       0.05215029
Sn       3.93691431       0.16061848       5.41230665
Sn       1.67638972       2.42260409       5.41275345
Pr       1.67503560       0.16089368       2.70856523
Sn       1.67513444       0.16143338       9.39646733
Pr       3.93787904       2.42362215       8.11837809
Sn       3.93770768       2.42335543       1.43199587
Rh       1.67504794       0.16102794       6.81325104
Rh       3.93777919       2.42293634       4.01511229
Rh       1.67619934       2.42364400       0.05593885
6
Lattice="4.20756196975708 0.0 2.408097982406616 1.3750173014432927 3.976220457480043 2.40840482711792 0.0 0.0 4.824860572814941" Properties=species:S:1:pos:R:3 pbc="T T T"
Cu       0.22183765       0.26920135       3.33766445
Pd       3.72494121       2.76525188       6.94418907
Zr       2.34333104       1.78038045       4.53323302
Cu       0.22110715       0.26815617       0.91115719
Ni       2.32709542       0.26968886       2.12216638
Ni       0.91064947       2.25891895       2.12252497
10
Lattice="7.414802551269531 0.0 5.00541877746582 3.4383061799264 7.474833317936809 4.622697353363037 0.0 0.0 9.424947738647461" Properties=species:S:1:pos:R:3 pbc="T T T"
Cs       4.59325411       4.53962654      10.35878506
I        7.20490242       4.59653604       7.13084326
I        1.85116773       0.83879592       6.05662235
I        1.34903529       0.07869164       3.11065941
Cs       5.71601463       1.18587704       5.80056226
I        7.90740413       5.85082606      12.98267455
I        2.14401598       1.53395243       9.09897891
I        4.11738572       5.50279790       4.75675191
I        5.09065032       0.74472192      11.39089158
Ru       6.41062106       6.74646637      15.06023235
4
Lattice="3.745032787322998 0.0 -1.6612598896026611 -0.7368020224979333 3.671414509847111 -1.65980064868927 0.0 0.0 5.04973030090332" Properties=species:S:1:pos:R:3 pbc="T T T"
Pt       0.93177800       2.24173658       0.42458851
Pt      -0.18791884       3.15861596       2.95218247
Tm       3.17338920       0.40592855       0.42948033
Pt       2.05163183       1.32426700       2.94909593
10
Lattice="14.724366188049316 0.0 299.5350341796875 32.379329808109105 0.6592198590656236 289.5720520019531 0.0 0.0 260.8489685058594" Properties=species:S:1:pos:R:3 pbc="T T T"
Rb      31.75973111       0.34991857     588.16459566
Rb      17.65413649       0.16165737     513.48365926
Rb      25.65889231       0.50837393     388.15102916
Rb      10.15233377       0.19698589     279.90597041
Na       8.99290211       0.06529948     232.26946983
I       20.74651746       0.33967920     341.82307269
Ir      43.49438073       0.64620164     720.88727612
Rb      33.91066512       0.65411379     350.80548579
Rb       8.86129512       0.02236129     176.71809493
Rb      21.65724773       0.28925283     470.53852472
14
Lattice="31.488405227661133 0.0 1021.2020874023438 39.00338433165689 0.4157404628991231 1368.9696044921875 0.0 0.0 1091.271484375" Properties=species:S:1:pos:R:3 pbc="T T T"
Rb       4.07837634       0.00152823     670.94208584
Rb      50.97044964       0.30920904    2029.61383703
Rb      37.81041029       0.17580399    1461.87603815
Rb      18.57158643       0.05659460     972.30314206
Rb      35.11989049       0.09574786    1425.72307605
Rb      49.69981548       0.35800592    2634.12131258
Rb      35.72720777       0.14034459    1635.52724786
Nb      12.51224273       0.10456903     911.51474516
Rb      51.26668632       0.38381658    2393.82815672
Rb      42.87513385       0.30304275    1744.73194054
Rb      49.91274281       0.41475987    2100.09111004
Rb       6.04781454       0.04988574     633.57544945
Rb      15.03671899       0.09206244     596.83560180
Rb      16.06339955       0.09154741     632.82493139
4
Lattice="4.03785514831543 0.0 0.004298279527574778 -2.02224390839703 3.495017381447216 0.004629497416317463 0.0 0.0 5.79502534866333" Properties=species:S:1:pos:R:3 pbc="T T T"
Ga      -0.06928115       3.40728622       5.15965900
Ag      -0.07018611       3.40756495       2.26157477
Au       1.94979454       2.24258902       0.64050012
Au      -0.06692177       1.07748038       3.87821615
9
Lattice="3.8878531455993652 0.0 -0.0040114885196089745 -0.008587448285013111 5.396652064995249 -3.1330385208129883 0.0 0.0 6.237828731536865" Properties=species:S:1:pos:R:3 pbc="T T T"
Ta       3.48632923       3.18949032       2.87101653
Os       1.54421069       1.82643907       1.11225515
P        1.54469142       1.39100865       3.44214190
Os       1.54139383       3.19282342      -1.27250924
Ta       3.49037741       0.00338907       2.16225836
Ta       3.48979813       0.97965907       5.28092292
P        3.48631170       3.19220775       0.31331043
Os       1.54073151       4.56765502       1.10780634
P        1.53914963       4.98995104      -2.80489713
6
Lattice="4.9662184715271 0.0 -0.004838793072849512 -2.482084587732999 4.302604533279817 -0.0004016862076241523 0.0 0.0 7.195849418640137" Properties=species:S:1:pos:R:3 pbc="T T T"
Cd       2.18078036       0.00261174       1.32304850
In       2.18258844       0.00132885       5.17730424
Y        2.18174132       2.87184551       6.80843837
Cd      -0.29846992       1.43739968       5.11347301
Na       2.18497788       2.86935122       3.20916430
In      -0.30033894       1.43655479       1.25363522
8
Lattice="3.6951024532318115 0.0 0.3338601291179657 1.2411516081609264 3.7657409387968737 0.7152785062789917 0.0 0.0 8.710975646972656" Properties=species:S:1:pos:R:3 pbc="T T T"
Lu       1.17377832       0.09822517       4.38580482
Yb       1.02223199       2.64870013       1.87388433
C        1.54439198       0.52512471       8.85639039
Lu       3.45827543       1.62753915       7.72585593
C        1.89090115       3.31414649       7.31860160
C        2.93911907       1.76231725       4.15255410
C        3.12132912       0.87075544       3.19204240
C        2.50080272       3.64665240       8.49412669
8
Lattice="5.149411678314209 0.0 1.545436978340149 2.3479765612733843 4.583360537890047 1.5460816621780396 0.0 0.0 9.38729190826416" Properties=species:S:1:pos:R:3 pbc="T T T"
Sm       3.13149928       4.09248258       7.02230548
Ca       1.76980690       0.11046792       2.17381356
Er       2.76023061       0.71763665       8.25741351
Hg       5.52479168       2.40750719       8.39145058
Hg       3.73248870       1.30934628       4.98929118
Er       6.38957368       2.93472209       5.50026893
Hg       2.15319705       3.49436405      10.29223441
Sm       4.64695465       1.87004139       1.92885318
5
Lattice="4.8787031173706055 0.0 -1.6771920919418335 -0.5761920732067165 4.839954785348678 -1.683130145072937 0.0 0.0 7.891531467437744" Properties=species:S:1:pos:R:3 pbc="T T T"
Sr       4.24550813       0.32130163      -0.49077392
Sr       2.88242231       1.52917769       3.44848853
Sr       1.51642948       2.73484879      -0.50276017
Ag       0.58229371       4.43038743       4.68113689
Ag      -0.27529258       3.46724537       2.21029772
4
Lattice="3.5396296977996826 0.0 -0.44289514422416687 -1.906387976117614 3.0741431990029047 0.09315892308950424 0.0 0.0 7.434716701507568" Properties=species:S:1:pos:R:3 pbc="T T T"
Na       0.23152784       0.56915136       2.47183185
Nb       0.85895991       0.23623500       6.05840013
Se       1.28572727       1.96881669       0.14854796
Se       0.59552742       2.36593822       4.43593531
10
Lattice="5.649293422698975 0.0 0.018609214574098587 0.026621137756190936 5.923726346134285 -3.363607883453369 0.0 0.0 6.803894996643066" Properties=species:S:1:pos:R:3 pbc="T T T"
Dy       4.74900063       2.50725560       3.41080710
Dy       4.74804150       2.97365045       0.00549543
Cd       1.91821015       1.75185763       1.55470008
Dy       1.93196173       4.48026025       3.14783868
Dy       1.93386217       4.93776221      -0.26219874
Cd       4.75893183       5.69952023       1.59440438
O        3.33733975       3.72164182      -1.82795789
Dy       4.75953684       5.70264995      -2.06921404
Dy       1.92026969       1.74821666       5.21646415
O        0.51462708       3.72214355      -1.83652344
9
Lattice="5.416712284088135 0.0 0.703415036201477 1.079983849759969 4.469012585880156 2.734037399291992 0.0 0.0 5.509678363800049" Properties=species:S:1:pos:R:3 pbc="T T T"
Na       4.60171820       1.22602547       3.54268391
Rh       1.45929615       2.01524620       5.47733562
Ru       1.65003428       3.61725005       2.94671807
Hg       3.69669299       3.28202275       5.96760344
O        6.03515587       3.66680119       5.25225204
O        5.36038234       0.84615743       5.70807042
O        2.03857800       0.13424055       0.55755004
O        2.35749562       1.97576999       3.73360761
O        0.70171813       2.63443555       1.69414940
7
Lattice="44.51511001586914 0.0 407.1471252441406 -1.8741874955718458 1.0673333166941252 402.3845520019531 0.0 0.0 400.121826171875" Properties=species:S:1:pos:R:3 pbc="T T T"
Sb      33.33245406       0.58037374     823.10060067
Rb      42.07023551       0.96499113     873.67059311
Pt      21.99397120       0.48186400     543.60091378
Mo      22.04784383       1.06076584     960.35131366
Te      38.60619979       0.06983257     523.55227481
Pt      31.16377997       0.07139890     370.28761732
Ga      29.75379259       0.74106173     860.12696960
8
Lattice="5.262463092803955 0.0 1.5601004362106323 2.40184716703169 4.682156593969402 1.5596472024917603 0.0 0.0 9.68376350402832" Properties=species:S:1:pos:R:3 pbc="T T T"
Nd       7.35964074       4.22220517       8.74245555
Nd       3.46048874       1.84232397       2.56472146
Ca       5.41207456       3.03470308       5.65440557
Tl       4.44195176       2.43898119       8.93439122
Tl       0.63257758       0.11501154       2.44883641
Sm       1.57882121       0.68922456       8.93540305
Tl       2.52234680       1.26873912       5.74031538
Tl       6.37957889       3.62415018      12.05683979
8
Lattice="4.979115962982178 0.0 2.5841636657714844 1.839053217064758 4.626989078920933 2.5868539810180664 0.0 0.0 6.116349220275879" Properties=species:S:1:pos:R:3 pbc="T T T"
Pb       2.54340885       3.68652022       4.99993590
F        6.33250151       4.31667454       5.49467007
F        4.08085807       0.40254507       6.33221539
Ir       4.11449337       1.37357905       8.05748456
F        4.14676086       2.34193925       3.66441896
F        3.73419245       3.05868199       7.08702096
F        1.06452158       1.69672928       5.21987785
F        2.17779157       1.04955265       2.19611966
12
Lattice="6.02819299697876 0.0 12.07665729522705 6.0375354436945345 6.496058426248578 14.31236743927002 0.0 0.0 21.994625091552734" Properties=species:S:1:pos:R:3 pbc="T T T"
Sm       9.79909369       5.25128066      36.74036702
Hf       6.23626221       1.49900155      22.26868762
N        9.87398586       5.63135966      27.66499930
Nb       3.70431801       2.13857561      24.67060244
Hf       6.08975123       4.30450812      21.21995292
Nb       8.32467019       3.64527373      18.21057748
N        5.03724711       3.22827141      23.20181073
N        7.23107755       2.61213070      20.34015346
Ca       2.15983799       0.41765857       5.70045623
N        5.80078757       4.48675357      33.07704872
N        6.05189635       1.20662732      31.71452873
N        8.10721099       6.48424820      29.62243115
4
Lattice="3.4167068004608154 0.0 -0.0010008934186771512 -0.0021553764984445336 3.4168420192349562 -0.0017316642915830016 0.0 0.0 6.841996192932129" Properties=species:S:1:pos:R:3 pbc="T T T"
Li       1.92849234       0.00820952       5.70521686
Bi       1.92607085       0.00896294       2.28440240
Au       0.21658189       1.71743824       0.25656899
Au       0.21666404       1.71767693       4.30887239
8
Lattice="3.6671571731567383 0.0 -0.6258900761604309 -0.0007251280588343066 5.039361424727823 -0.0011800711508840322 0.0 0.0 11.044779777526855" Properties=species:S:1:pos:R:3 pbc="T T T"
Er       0.71715103       4.70259873       5.53110539
Er       1.13428259       2.18262545       7.97891748
Hg       2.51534105       2.18275611       5.01560418
Hg       3.00229391       4.70350224       7.87134616
Er       1.62297525       4.70318505      -0.20122748
Hg       2.13047141       4.70236684       2.77570475
Hg       3.38606822       2.18406843      10.11102104
Er       0.22525272       2.18421681       2.66830456
11
Lattice="5.434591770172119 0.0 1.3003464937210083 2.1800560716093282 4.956794058097311 1.1019552946090698 0.0 0.0 7.305788993835449" Properties=species:S:1:pos:R:3 pbc="T T T"
Rb       4.43320989       0.14873420       5.32037911
Ga       2.52878709       0.57358427       1.59381699
O        3.19087103       4.55975456       3.19859470
O        6.79809518       3.32070850       8.69068369
Ti       4.95050063       2.66739597       1.78571392
O        2.93961352       2.32665127       1.88551386
W        2.26025712       4.26735386       1.45879520
O        5.18674685       1.10566756       8.09799839
O        5.23111329       2.12123414       3.40841964
O        4.33772905       4.49343447       8.33134276
O        6.01820157       4.59116481       3.66353191
12
Lattice="6.322307586669922 0.0 -2.005208969116211 -0.888153772374118 7.0341518182269285 -4.0561370849609375 0.0 0.0 8.654743194580078" Properties=species:S:1:pos:R:3 pbc="T T T"
Sm       2.78064482       0.37660164       4.30739017
Sm       1.04770326       2.17001607       6.75652127
Sm       0.62698270       5.85043549      -2.55810223
Sm       5.53167619       0.15242130       2.03750539
Sm       5.46568568       2.00004163      -0.88432027
Sm       4.20765158       3.57813015       4.77175932
Sm       1.28347636       3.65997674       3.37395673
Sm       2.62084508       6.62503711       3.54444392
In       0.23481041       4.64088428       0.38810975
Dy       2.70735800       2.02199430       1.11246483
In       3.13117849       4.52156225      -0.90793198
Dy       5.09534131       5.73164844       1.23780422
8
Lattice="6.688995838165283 0.0 1.0927612781524658 3.1976303107186377 5.742588259660377 0.5651240944862366 0.0 0.0 8.206859588623047" Properties=species:S:1:pos:R:3 pbc="T T T"
Cs       4.42726515       0.27047420       3.91533337
Cl       7.00748303       5.16558931       7.93330089
Au       3.97394945       3.61562147       1.20042527
Cl       4.38800251       4.00509688       3.46228170
Tl       7.74246095       2.82730025       7.90103214
Cl       7.64269193       1.97140582       5.57682570
Cl       3.64333682       3.14984835       7.11587531
Cl       7.01529503       1.35195831       1.48751979
12
Lattice="20.190631866455078 0.0 185.2017364501953 21.298937664086 26.581783785881 160.2173309326172 0.0 0.0 176.42364501953125" Properties=species:S:1:pos:R:3 pbc="T T T"
Rb      15.54619356       6.70350620     260.95481015
P       28.77135326      12.21286210     310.80511611
Cs      15.21161210       1.02111932     254.60353826
Rb      19.76135109      22.29985055     198.21659037
Rb      37.31017195      25.55457117     372.06369779
Ho      23.71127676      11.93400650     325.64044859
Rb      32.94256989      21.23604786     435.74649008
Rb      23.96413378      25.14499643     189.87345392
Li      14.47023749       3.02114137     293.03464750
Rb      22.84093502      15.96206614     338.80831204
Cs      11.20333116      12.43356871     191.28576917
Rb      39.38636178      26.46440209     497.85586139
10
Lattice="5.241482734680176 0.0 2.3956494331359863 2.609424944073552 6.297045417612429 1.2082806825637817 0.0 0.0 6.92584228515625" Properties=species:S:1:pos:R:3 pbc="T T T"
Ag       5.36945972       3.44455960       4.03085235
Ag       3.79039775       4.76774710       7.47522316
Ag       7.42449896       5.96911008       6.45982728
Se       0.61854141       0.93352947       0.57007136
Se       2.74984307       3.51265367       2.83496574
Ag       3.23777608       0.99887657       1.76569803
Ce       1.68691326       2.22165906       5.16407567
Se       4.83294214       5.95252111       5.19833768
Se       6.38834178       4.78068521       8.73640390
Se       4.30676232       2.22029154       6.35948826
12
Lattice="7.1472978591918945 0.0 0.2169993817806244 -0.4055786799299543 6.729251949542602 3.9618611335754395 0.0 0.0 7.814845561981201" Properties=species:S:1:pos:R:3 pbc="T T T"
Ba       4.01057476       5.42673992       3.58226125
Ba       4.85325023       0.94568447       3.46226543
Ba       0.60008774       0.95135585       7.81316132
Te       1.28913727       1.10366915       3.27710716
O        5.23707570       0.93712431       8.48754215
Ba       1.40714723       4.94605403       8.88986388
O        1.45890956       5.52574934       3.51066741
Ba       0.42114014       3.82786385       5.02477698
Ba       4.15068905       3.09149795       7.33294418
O        3.98439101       5.34523869       8.74530273
O        5.09661544       3.34161497       4.90651466
O        1.59155588       3.14238263       7.17062178
16
Lattice="175.8514404296875 0.0 1036.3974609375 3.7776395149559465 37.65462864238433 1248.65673828125 0.0 0.0 1157.6932373046875" Properties=species:S:1:pos:R:3 pbc="T T T"
Tl     112.31030994       7.77930415    1029.63022587
Rb      62.16825523      17.72700848    1943.11366574
C      102.77888603      36.69797503    1858.00788787
Sc      31.50308587      14.02896061    1436.87255308
Rb      61.25530456      33.61075045    1801.14051564
K       51.11090503      23.09592560    1785.28073699
Rb      59.06135930      36.18234421    1963.46634863
Ga     163.64997076      13.67971321    1934.89964614
Tl      79.92314211      14.18234115    1303.91655274
Li      96.60044725       1.49431691    1328.92711726
Rb      50.28104301       0.09890573     353.40018456
Rb      92.41900042      34.61360933    2314.12210229
Ba     133.88893219       5.59580988    1552.25861672
W      123.54391255       9.64097691    2170.58874259
Rb     164.08713001      17.40679564    1704.89157890
Te     117.66805626      22.61871202    2132.63182915
20
Lattice="7.07049036026001 0.0 0.5315240621566772 3.257098404010606 6.810894450474367 0.4505518674850464 0.0 0.0 8.858887672424316" Properties=species:S:1:pos:R:3 pbc="T T T"
Sr       4.50289101       0.56365135       2.86535336
Sr       3.96567886       5.75239310       3.33215033
Sr       7.18465611       3.55011060       7.97206367
Pt       6.82897038       1.92203021       5.36134288
Be       4.75779017       6.51489087       9.22015794
Pt       8.81815691       4.36760227       1.59508231
Be       7.01990567       1.14844098       0.86676148
Be       5.75390377       3.32705434       4.10760113
Pt       2.16716992       0.69247646       5.09813954
Pt       6.32424912       5.10372638       5.29074600
Sr       3.70265853       4.48545070       7.42447627
Sr       4.42553227       0.42912939       7.32803455
Pt       6.41415938       5.60038874       1.28004899
Pt       2.26595709       2.65550319       3.12602485
Pt       2.08921179       1.52748773       0.81515593
Be       7.69013176       4.18189138       3.54713636
Pt       4.07539397       2.58964861       5.18201872
Pt       8.81550964       4.26548604       5.59864592
Pt       6.42747784       2.93977024       2.04762509
Pt       0.47062930       0.64706506       7.10411638
11
Lattice="5.872381210327148 0.0 1.4777629375457764 1.8325762960022023 6.154522200265862 3.6752607822418213 0.0 0.0 7.169501781463623" Properties=species:S:1:pos:R:3 pbc="T T T"
Pd       4.08413276       1.00350784       3.72855887
Pb       5.13249122       3.37440437       9.82648914
Pd       1.06386691       0.94856246       2.87803332
Pd       4.17771503       4.61526619       7.31201814
Pb       2.11329802       0.53013564       5.52463328
Na       1.81918137       4.42270516       5.37260200
Pb       2.30306479       2.94312803       8.56779400
Pb       5.09333576       2.25334564       6.18901899
Pb       5.22162961       5.85782574       5.01287086
Pd       6.95730283       5.60002806       9.82366948
Pd       6.05249293       0.89962635       8.80032987
4
Lattice="3.819125175476074 0.0 2.2047224044799805 1.2738473692736532 3.60050224081303 2.204939365386963 0.0 0.0 4.4098711013793945" Properties=species:S:1:pos:R:3 pbc="T T T"
Ti       1.86007205       0.38756173       3.69884165
Ti       4.40703735       2.18684570       3.69985937
Re       1.86108131       3.08741485       3.69921836
Ir       3.13357345       1.28724786       5.90362363
20
Lattice="3.0199081897735596 0.0 0.0002925488806795329 0.002978617237330736 9.771588825197432 0.9315972924232483 0.0 0.0 9.614970207214355" Properties=species:S:1:pos:R:3 pbc="T T T"
Ta       0.72581090       4.31871262       1.84479140
Ta       0.72701021       4.40335864       6.64248397
Ti       2.23617805       3.35529453       8.97955518
Ti       2.23951963       9.59831703       0.93747480
Co       0.72565595       1.12596593       7.83709661
Ti       2.23638701       5.45920579       4.23558003
Ti       2.23603170       6.51567526       7.49597119
Be       0.72705332       1.78637074       0.58479711
Co       0.72675290       7.98802162       9.15934965
Ti       2.23714293       6.61337708       1.07700880
Ti       2.23757037       8.46502302       4.26430208
Ti       0.72588569       0.60297752       4.58764903
Ti       2.23776938       9.20526740       7.51269780
Co       0.72667304       7.23413086       5.65760950
Be       0.72718085       5.38903553       9.11473792
Be       0.72727416       3.33771935       4.26672604
Co       0.72667354       7.39995743       2.73487615
Ti       2.23494630       2.00007541       2.62391523
Ti       2.23578647       2.25256219       6.07680704
Be       0.72362801       0.09918845       1.97134326
10
Lattice="4.257945537567139 0.0 0.01138145662844181 0.011324818046419915 4.257451731083677 0.009899196214973927 0.0 0.0 10.261714935302734" Properties=species:S:1:pos:R:3 pbc="T T T"
Nd       2.69801490       1.36482624       7.22952959
Al       2.70104680       1.36485834       3.37683729
Al       2.70421676       3.49274717       9.83090571
Nd       0.57527186       3.49368254       2.15550811
Al       0.57080483       1.36343473       9.81777300
Rh       0.57045693       1.36388287       4.68577523
Cu       0.57422984       3.49193817       8.48136692
Al       0.57516255       3.49127483       6.00283078
Cu       2.69930778       1.36570731       0.89902560
Cu       2.70420439       3.49133903       4.69818707
9
Lattice="5.234878063201904 0.0 0.0002805919211823493 -2.611072580333485 7.420549561261631 -2.3963308334350586 0.0 0.0 8.240869522094727" Properties=species:S:1:pos:R:3 pbc="T T T"
La       2.20251397       1.10359383       0.46034930
La      -0.41359473       1.91515651       2.95230236
Tb      -0.40734415       6.87026918       1.33805846
Nd      -0.41193683       3.58071981      -0.33881271
La      -0.41001469       5.21175812       4.61207475
Nd       2.20669900       6.05109166      -1.13093254
La       4.82129859       0.29306495       6.20792673
Tb       2.20476881       2.76136338       5.42817955
La       2.20658629       4.41570135       2.15570233
18
Lattice="9.598943710327148 0.0 -2.9559569358825684 -3.859405461003007 6.766114689219023 -1.7650020122528076 0.0 0.0 10.870559692382812" Properties=species:S:1:pos:R:3 pbc="T T T"
Li       5.15130304       1.71567033      -1.85671999
Br       1.21194187       0.38629780       0.91014266
Br       7.75553171       2.10226046       5.40441736
Br       5.14602468       1.10397104       6.46637051
Br       1.70569618       0.43004791       5.40219743
Li      -2.34692982       4.50022299      -1.10284740
Br       0.38996914       2.92315198       8.50494743
Br       4.41507973       6.20170934      -0.07325774
Br       7.19758851       3.36348297      -1.81518892
In      -1.26888604       4.02233463       3.58431735
Br       2.97565513       1.69071916       1.84266126
Br       3.07162175       3.34009587      -2.06098563
Br       0.86618684       4.93169568       2.61967362
In       5.97085285       5.48350783       1.84302593
In       3.26423007       3.05202651       5.93906161
Br       4.55503053       3.42115431       3.10445113
Br       5.04451001       5.33450036       5.80001489
Br       1.36653226       6.61946365      -2.18383106
4
Lattice="4.974701881408691 0.0 -0.0012894662795588374 -0.0019409174389482299 4.97295723231938 -0.00150835863314569 0.0 0.0 4.97795295715332" Properties=species:S:1:pos:R:3 pbc="T T T"
Ho       1.17511989       4.84581514       0.09705561
Ho       3.66195989       2.35842002       0.09713921
Y        1.17395765       2.35880921       2.58600698
Tm       3.66064418       4.84439978       2.58592565
20
Lattice="7.376684665679932 0.0 1.8116662502288818 0.03647640971146155 8.42737410057764 4.895216941833496 0.0 0.0 9.6858549118042" Properties=species:S:1:pos:R:3 pbc="T T T"
Ca       4.68487534       3.35691815      11.28790017
Ca       6.21402452       6.81587216      10.95974916
Li       2.71786897       0.31535511       8.23436324
Li       4.70066338       6.15793614       8.08334846
Ag       2.37982565       3.01682898       3.72407505
Ag       1.40355389       1.09335571       5.94164998
Ag       6.26778325       1.53878632       6.27786130
Li       1.15370432       0.59624210       3.20365674
Ca       6.91345337       4.24044062       4.78905130
Li       3.67962846       0.15695043       1.77988707
Ca       7.36105851       3.76391132       8.36275296
Li       3.88781570       0.72415519       4.72794843
Ca       3.55621548       5.77361123       4.62237752
Li       1.96375730       5.97959727       7.76426379
Ca       6.11476541       0.39168777       9.16137650
Ca       3.71283087       3.07631085       7.05039742
Ca       1.25459709       2.66233505       9.98684213
Ag       6.13312937       1.26227612       3.35421692
Ca       0.25855652       7.27618460       5.33746000
Ca       2.16180148       6.44166982      10.90482965
15
Lattice="3.1810922622680664 0.0 0.03359886631369591 0.058354794008533974 6.171491829732169 -3.420444965362549 0.0 0.0 7.902885437011719" Properties=species:S:1:pos:R:3 pbc="T T T"
Fe       2.91746884       0.95439842       6.91384377
Fe       1.38546316       5.76801418      -2.82658806
Ho       3.04129042       3.20165605       1.74720987
B        1.39997879       4.34781207       3.45971744
C        1.39767541       4.77601215      -1.12559905
Fe       1.37142729       1.65159789       3.80533767
Fe       3.00157630       5.90271739      -0.51899139
Ho       2.96422575       3.43367681       5.27629272
C        2.98506043       5.13381355       3.40961295
Fe       1.36178589       2.87545330      -0.58317684
C        1.35496276       1.54362245       5.78757127
B        1.77762366       1.44997862       0.63441918
C        1.42254250       1.04985594       2.04903984
Fe       1.40530110       5.77113575       1.94987046
C        1.40925873       4.71472988       0.28057785
8
Lattice="4.1093316078186035 0.0 -0.003010434564203024 -0.008736718140924266 6.758307531876528 -2.303067207336426 0.0 0.0 7.31542444229126" Properties=species:S:1:pos:R:3 pbc="T T T"
Nd       3.87634550       6.44200412       3.98573033
Se       1.82526625       4.74542168       2.64106786
Nd       1.82590027       3.06112162       5.13832541
Ca       3.88184954       3.06063904       1.48002321
Se       3.87909045       4.80274188      -0.82447402
Se       3.88325904       1.31873519       3.78565777
Er       1.82275104       6.44115456       0.33004621
Se       1.82839187       1.37739731       0.31866954
4
Lattice="2.998782157897949 0.0 -0.0015887842746451497 0.00033375232913235276 2.9974725060621874 -0.00040962727507576346 0.0 0.0 6.590911388397217" Properties=species:S:1:pos:R:3 pbc="T T T"
Os       2.98905235       1.09625165       2.98309058
Ti       1.49134672       2.59482871       4.53148629
Os       2.98850192       1.09543846       6.08271129
W        1.49180290       2.59513297       1.23548249
8
Lattice="3.7926108837127686 0.0 -0.0012290129670873284 -0.0008244334748039003 3.8122850957154606 -0.0024238009937107563 0.0 0.0 7.638804912567139" Properties=species:S:1:pos:R:3 pbc="T T T"
Cu       1.29091810       0.04335897       1.99794551
Cr       3.18766697       1.94990634       5.81469987
Pt       3.18686189       1.94928237       1.99946597
Pt       1.29167469       1.94958368       7.61235469
Cu       1.29093115       0.04362083       5.82033393
Cr       1.28978989       1.95031627       3.89650997
Cr       3.18761720       0.04344442       0.09836809
Pt       3.18548822       0.04433334       4.01843358
4
Lattice="4.387531280517578 0.0 1.2765525579452515 1.996487905193134 3.9080176398722934 1.2764972448349 0.0 0.0 8.146163940429688" Properties=species:S:1:pos:R:3 pbc="T T T"
Pb       3.26199855       1.72595399       6.40465571
Au       2.06466956       3.67673315       2.33070466
Se       5.79541177       3.27676783       5.85990023
Se       0.72894990       0.17395204       6.94508878
10
Lattice="11.056061744689941 0.0 11.919597625732422 4.649469084925784 5.89782609870325 12.18844985961914 0.0 0.0 16.696821212768555" Properties=species:S:1:pos:R:3 pbc="T T T"
Ga       8.96207238       0.63131321      14.08432362
Ga      12.53396461       4.57190204      32.98907991
Ga       2.28726932       2.57383062       5.91816600
Ga       8.10699998       1.19946316      21.09136536
Al       8.05899243       2.60676233      12.42850065
Ga       7.32228452       4.81540140      27.33271073
Ga       2.99742544       1.60259593      15.70986502
Al      13.25116611       3.94902833      25.92422276
Ga       7.56397701       3.75930477      19.84655054
Ga       2.91913373       0.25636799       7.32718198
4
Lattice="21.82620620727539 0.0 275.24163818359375 26.910485315661617 3.274299195927509 277.00323486328125 0.0 0.0 274.8146667480469" Properties=species:S:1:pos:R:3 pbc="T T T"
Sc      20.01989426       2.21300529     478.14789325
Ca      42.35780746       2.71016912     551.19703812
I       40.82800648       2.67547297     654.27723155
Se      36.51492652       3.13692619     411.42599176
7
Lattice="140.7877197265625 0.0 997.7360229492188 -20.328625909914994 82.91569394179848 1048.4630126953125 0.0 0.0 1154.10595703125" Properties=species:S:1:pos:R:3 pbc="T T T"
Ca       4.98176362      55.44975567    1969.88692248
K      111.11232009      27.33918916    1958.80905482
Cd     101.73431259      10.30698812    1522.93583921
K       56.76860352       0.22480927    1295.43452820
N       -7.71303707      50.90022018    1240.33205916
Na      24.87126097      67.24272419    1177.14506214
Rb      -6.57818211      62.04511825     948.01659745
7
Lattice="123.13948822021484 0.0 988.8629150390625 71.89648823726746 49.95412318112024 810.6605834960938 0.0 0.0 1035.405029296875" Properties=species:S:1:pos:R:3 pbc="T T T"
Re     112.74633134      28.33963914    1810.34355044
O       37.27205951      15.95638076    1019.20344971
Nd     125.30151029       7.41512322    2058.26501800
K       78.22515967      41.01982849     949.41327017
Rb      91.13166015      47.55805331    1685.03815830
Tl     144.47574465      35.42695921    1368.62325538
Rb      96.44886580      27.50320940    1921.22905444
7
Lattice="3.440316677093506 0.0 0.0003070277743972838 0.006585027288053232 5.692298418139677 -1.765885829925537 0.0 0.0 6.364905834197998" Properties=species:S:1:pos:R:3 pbc="T T T"
Ti       1.94055115       4.71479472       2.04168571
S        0.21475734       0.34164200       4.91405872
Ti       0.21621223       1.71332719       2.84960913
Ni       0.21634494       2.54899161       5.24844856
S        1.93421399       0.39781111       1.82724928
S        0.21852915       3.29174828       0.98991655
S        1.93821250       3.19023348       4.02477699
8
Lattice="21.371856689453125 0.0 1732.7548828125 12.89615921124095 21.51049301652551 2043.0379638671875 0.0 0.0 1704.82080078125" Properties=species:S:1:pos:R:3 pbc="T T T"
Cu       7.95988433       2.75189123    1938.07898787
Li      14.77632747       5.46850735    2320.91795351
In       8.94588749      13.65143677    2561.64162051
Cs      12.73634516      18.68796854    3186.22842496
Zr      13.04676035      11.64240285    2435.12221286
Rb      12.31338490       4.49804011    2354.12768241
Br      25.42168632       9.37775289    3851.75391806
Cd      16.37788174      16.87012258    3314.72750487
10
Lattice="3.8747966289520264 0.0 0.003678959095850587 0.007399363984622788 8.809016934775407 0.0015569385141134262 0.0 0.0 8.81407356262207" Properties=species:S:1:pos:R:3 pbc="T T T"
K        2.65131925       7.88331600       5.19851368
Pr       0.71120403       6.52531198       8.24271843
K        2.64663872       3.47525316       0.79075893
Pr       0.70869890       2.11625231       6.54925333
Pr       0.70878840       0.43277706       2.15453590
Pr       0.70999381       4.83426083       3.84177423
Au       2.64607317       2.29357579       4.01686223
Au       2.64735536       4.65150010       6.37809939
Au       2.64436457       0.25259585       8.42768653
Au       2.64971321       6.69911258       1.97242751
12
Lattice="29.465717315673828 0.0 270.1741027832031 -0.5510683481937306 3.371646954541293 267.7070617675781 0.0 0.0 267.2471618652344" Properties=species:S:1:pos:R:3 pbc="T T T"
Re      17.34439787       3.20881480     462.20228506
Se      24.37745191       3.11142154     654.34116837
As      25.97554230       1.37712199     579.51610638
Hg      24.27958381       2.92718934     599.08113927
Rh      26.14623547       1.92141812     455.71516221
Rb      16.54939744       0.42554547     403.65307402
Rb       4.01408255       1.36809009     271.49559673
I       26.95549209       0.69429149     527.50838474
Rb      -0.27539752       2.84145953     428.01351573
I       22.98411735       0.13811505     255.24110291
Ta      20.56445228       0.46702969     440.43701316
Ce      23.52260851       1.92971399     626.21394270
11
Lattice="3.831998348236084 0.0 -0.480467826128006 -0.0929566495713325 4.726881191264365 -0.7320459485054016 0.0 0.0 15.531113624572754" Properties=species:S:1:pos:R:3 pbc="T T T"
Hg       2.87120460       1.07735152      11.52415956
Hg       3.63320518       4.47264464       2.13492258
Hg       0.57340773       0.60139632       8.76470454
Sm       3.21710209       3.94554796      14.34146778
Sm       2.56688294       3.11453057       9.11594849
Zn       0.04326043       2.35336810       4.51113375
Sm       2.15248876       0.17811651       5.83047492
Zn       0.34369103       2.73306572       6.92185864
Hg       0.96991663       3.52284986      11.92396927
Hg       1.27560711       1.49018357      14.34346553
Sm       1.65480891       1.96940348       1.87040255
12
Lattice="128.2675323486328 0.0 2282.743896484375 122.32914680005706 23.843544772905233 2104.788818359375 0.0 0.0 2568.468994140625" Properties=species:S:1:pos:R:3 pbc="T T T"
In      92.45242158       3.52863967    2153.95826588
Y      216.21598470      18.91934983    4013.71722882
Rb     114.99471138       7.87125154    3415.36589339
Rb     158.82481232      11.68020629    3560.23686721
Dy     136.88382898      12.31626236    3176.49969303
Rb     204.10227830      21.92369016    4111.53955585
W       98.14572871       8.14479930    4127.60221517
Rb     154.80257261       5.91322850    3074.90506617
Rb     160.06407839       7.12822707    4072.14125915
Rb      26.26835523       4.05393631     980.09984341
Pd      95.46411386       3.84664958    3687.77469524
Cs     182.49790951      20.99149446    4453.29633763
4
Lattice="8.879143714904785 0.0 31.271575927734375 5.230934456976456 6.390123218128387 31.014205932617188 0.0 0.0 33.89167404174805" Properties=species:S:1:pos:R:3 pbc="T T T"
La       6.84533886       0.65511217      47.30909044
I        4.80580730       2.61138562      28.04800775
Tb       3.26532351       3.80634556      42.70684207
Rb       4.12883572       0.50971636      44.27961865
8
Lattice="4.113865852355957 0.0 -0.002131015993654728 -2.0589236574210767 5.146729536201458 -0.00013901259808335453 0.0 0.0 8.431387901306152" Properties=species:S:1:pos:R:3 pbc="T T T"
Tb       2.32528570       0.79992820       4.09179824
Mg       0.26846408       1.69778657       1.53286644
Mg       0.26855602       1.69988226       6.64836147
Tb       0.26781299       4.68983885       8.30299849
Mg       2.32529952       3.78855280       2.43043718
Mg       2.32418751       3.78826106       5.74579834
Pd       2.32517053       2.55906780       8.30365004
Pd       0.26780994       2.92998433       4.08832308
4
Lattice="417.65625 0.0 1224.926025390625 474.09047411248315 161.71018932430616 1412.5185546875 0.0 0.0 1603.9232177734375" Properties=species:S:1:pos:R:3 pbc="T T T"
Li     518.65170162     118.07589225    2173.84400962
Nd     278.58510588      78.02002199    1924.62357167
Pt     724.95746136     125.61965208    3144.92308746
Cd     647.67279935     134.43681628    3386.71550234
4
Lattice="4.390727996826172 0.0 7.078442573547363 3.8008985454828794 5.336340746954287 6.206003665924072 0.0 0.0 10.0930814743042" Properties=species:S:1:pos:R:3 pbc="T T T"
In       7.36145709       5.15449528      18.90037785
Bi       2.58817043       2.18953664      11.13338106
Bi       2.19350414       0.13417654       5.36039980
In       5.63578370       2.52383371      10.92279926
8
Lattice="2.771369695663452 0.0 253.94361877441406 -32.3201685328861 4.624576739030151 245.2676239013672 0.0 0.0 254.39645385742188" Properties=species:S:1:pos:R:3 pbc="T T T"
H      -19.11956062       2.90422933     273.26860347
Se     -16.99571448       2.75317656     587.65052090
Hg      -3.02540329       0.70731008     384.49218542
I       -1.50204013       0.34093431     349.98402409
Te     -24.52046754       3.90504988     472.78584144
Rb     -28.47603448       4.18791007     322.34647210
Rb     -21.73378404       3.36051539     575.88723975
In     -28.60516613       4.27791932     408.55806783
18
Lattice="5.401390075683594 0.0 -0.002560366177931428 -0.009289705552147582 9.818792716948048 -0.01286414172500372 0.0 0.0 10.222138404846191" Properties=species:S:1:pos:R:3 pbc="T T T"
In       4.32176232       5.32899350       9.48937753
Er       4.32619378       1.79837459       3.27223326
Dy       4.31966371       8.49210345       8.81157059
Dy       1.62428151       3.48323405       1.68249116
Er       4.31937114       8.86395156       5.49021067
Dy       1.62679741       0.61391625       7.65889072
Dy       4.31889050       8.39874623       1.97267190
Er       4.32777246       2.27697078       6.78024557
Dy       1.62131164       7.06631921       3.71122040
Dy       4.32265820       5.52987263       6.22320003
In       1.62565771       0.41451161       4.38733450
Dy       1.62454623       3.59221265       5.04593497
Dy       1.62281228       3.95352575       8.37852527
Er       1.62121187       7.18606691       7.08439185
Er       1.62021048       6.71218414       0.37908844
Dy       1.62727467       0.22721566       1.11303797
Dy       4.32640800       2.14635185      10.15438643
Dy       4.32217808       5.13626449       2.53331455
9
Lattice="4.727021217346191 0.0 1.5601952075958252 2.356214509396806 7.506754232235881 0.7719261646270752 0.0 0.0 7.911623001098633" Properties=species:S:1:pos:R:3 pbc="T T T"
Tb       3.35073167       6.08355111       5.57847550
Ho       3.35581285       1.07521841       5.58318616
Tb       4.14498131       3.59118128       3.19474555
Er       6.50657829       6.08337303       3.97047449
Er       2.56731592       3.59020049       7.95697076
Er       4.92734779       6.08034522       8.73838406
Tb       4.93178113       1.07758166       8.73842217
Tb       5.71541244       3.58359274       6.36351615
Tb       1.78130275       1.07350136       2.42063141
15
Lattice="90.88475799560547 0.0 365.3914794921875 98.43858164738367 0.16993815040233443 407.4591369628906 0.0 0.0 386.0096130371094" Properties=species:S:1:pos:R:3 pbc="T T T"
Rb      83.79194109       0.06836389     726.75949286
Rb      74.96540719       0.09716289     624.41885429
Co     137.24640487       0.08720141     767.10010868
Rb     153.45515058       0.15417565     937.03370779
Rb      63.29118953       0.02456979     298.94227996
Rb      65.05902103       0.02014910     512.48698280
P       22.37500324       0.02664352     442.58477314
Rb      96.08103868       0.06731959     538.18522909
Nb     106.65003308       0.11727710     517.02756050
Rb      78.80653260       0.05199957     381.83031685
K       98.59140261       0.02823650     519.47177638
Rb      88.51779795       0.01103127     530.48117388
Rb      55.17478882       0.00306588     498.11205408
Rb      51.36163181       0.05319793     257.42161266
Tb      68.42505239       0.00595587     445.25445740
10
Lattice="4.206018924713135 0.0 0.007163777016103268 0.010321987731954784 4.205041137787935 0.0077917445451021194 0.0 0.0 11.006443977355957" Properties=species:S:1:pos:R:3 pbc="T T T"
Nd       2.50262248       3.75362199      10.44306817
Zn       2.50287997       3.75536443       6.32805899
Nd       0.39488723       1.65155846       5.20706834
Zn       2.49739440       1.65124378       2.32005379
Zn       0.39358586       1.64984659       9.31696528
Zn       0.39985411       3.75248884       2.32048091
Zn       0.39439408       1.65021954       0.80601986
Pt       2.49793934       1.65192677       7.82399600
Zn       2.50301980       3.75421625       3.83177468
Pt       0.39999563       3.75336032       7.82269462
12
Lattice="4.277595520019531 0.0 2.050814628601074 0.6063564446040237 5.942973003685555 2.2690038681030273 0.0 0.0 6.49284553527832" Properties=species:S:1:pos:R:3 pbc="T T T"
F        2.96848648       1.21891350       7.83634808
Co       1.12848465       3.97153709       2.66360865
F        3.44824647       4.46272880       4.62207017
Co       2.01024636       0.26249421       2.76045710
F        2.38277660       4.84846625       8.16938379
H        2.28436024       3.11289924       2.91458987
F        2.77131695       1.36932135       4.27017079
Eu       1.13183725       1.35771425       5.85087754
F        1.18536605       5.79994002       3.51944831
F        0.63010446       3.15199547       4.26020840
F        0.52113234       0.04670436       3.92116834
F        0.70093082       2.89200163       7.62452388
12
Lattice="4.046188831329346 0.0 1.0802375078201294 -0.9344721346787072 6.099211107800261 3.5331814289093018 0.0 0.0 8.161544799804688" Properties=species:S:1:pos:R:3 pbc="T T T"
Cu       3.33723346       3.31007709       6.40023192
Cu       0.76310873       5.71551107       7.93674751
Er       3.18506576       0.37664182       6.97142427
Er      -0.04419391       1.32451914       2.81121881
Cu      -0.31441532       5.81813514       3.85054696
Er       0.76272292       2.61722988       7.92802464
Cu       1.46359151       4.63151522       5.29947589
Si       0.20052767       4.40650241      10.08291437
Si       1.50235576       2.17678813       5.15399316
Cu       2.14885743       3.22647531       2.71977527
Si       2.76649917       4.55403293       8.51103238
Si       2.47245747       0.90439872       1.49613131
12
Lattice="5.168379783630371 0.0 1.6140719652175903 2.067334273026602 8.099353285367078 2.4798097610473633 0.0 0.0 9.165904998779297" Properties=species:S:1:pos:R:3 pbc="T T T"
Y        1.82794410       5.76020646       6.52286386
Pr       3.30471826       3.30801822      10.90581116
Tl       2.75793214       6.42525874       3.51529330
Tl       3.67139433       0.12540069       9.75359310
Pr       3.69244600       6.72843337       9.65805009
Y        4.56813124       1.00211756       6.87825644
Pr       1.34419943       2.47164560       8.10023507
Nd       0.38044960       1.31459750       2.02858232
Nd       4.70726127       7.71826086       6.38314729
Tl       4.34023961       4.13089603       7.57393015
Pr       5.37026708       4.78783506       4.21713037
Tl       2.34258066       2.70163734       4.92072234
10
Lattice="3.8219997882843018 0.0 -3.290256977081299 0.1060984924911818 3.85894646089919 -3.307332992553711 0.0 0.0 17.000858306884766" Properties=species:S:1:pos:R:3 pbc="T T T"
Hg       1.74167080       2.90507465       4.99169368
Sm       1.68619111       2.84875206       8.30100057
Cd       1.74578829       2.91429511      -1.66251071
Cd       3.56795581       0.95268840       0.02747723
Sm       1.82575795       2.97824648      11.96501267
Sm       1.70866366       2.88012557       1.68620565
Cd       3.64061063       1.00881388      10.17448779
Cd       3.61459918       0.97623430       6.70337939
Cd       3.58549885       0.97423700       3.33408184
Cd       3.60383842       0.97947481      -3.39430785
8
Lattice="2.4169952869415283 0.0 361.01025390625 29.657486499014794 15.939119149757689 381.855712890625 0.0 0.0 363.1291809082031" Properties=species:S:1:pos:R:3 pbc="T T T"
I       14.41857733       7.62641690     231.55184669
In      16.99407155       8.31958200     688.82952717
Rb       7.01582398       3.42199656     274.33592813
Ag      30.22419659      15.51703102     816.06290076
I        2.46606453       0.85311215     254.70124513
Hg      27.76174436      14.49302064     721.52041908
V       30.95592774      15.41612098     986.68582007
Re      17.02876291       8.72847115     463.72553251
10
Lattice="13.732437133789062 0.0 17.155004501342773 9.231721077400943 12.721417392656862 19.040393829345703 0.0 0.0 24.729137420654297" Properties=species:S:1:pos:R:3 pbc="T T T"
La       6.57968564       6.33317340      22.88076215
Au       2.20614526       0.78246003       4.72377184
H       17.75167240       7.17576594      47.69798456
Cs       7.17933763       6.13445016      34.92063257
Rh      10.53125753      12.26571641      34.95587012
Bi       9.27953825       0.85946591      28.26126813
Bi      13.46748857       6.52874344      37.12567849
Rb      14.62256628       6.80738113      28.23664285
Rh       9.65795040       0.70383732      16.53275072
Nb      13.50365922       9.69879537      25.01660397
4
Lattice="4.39998197555542 0.0 -2.52180814743042 -1.4571036148584684 4.152524969084243 -2.5230703353881836 0.0 0.0 5.0981950759887695" Properties=species:S:1:pos:R:3 pbc="T T T"
Hg       3.44909122       0.20339787      -0.69750598
Tm      -0.94134676       3.31578402       1.85118522
Hg       1.98757249       1.24062852       1.85180322
Hg       0.52497829       2.27741244      -0.69826311
10
Lattice="41.32026290893555 0.0 272.2310485839844 30.180351251556193 39.26865281220192 258.66455078125 0.0 0.0 276.2857360839844" Properties=species:S:1:pos:R:3 pbc="T T T"
H       35.30108512      29.92014677     361.04047265
Cl      18.67111900      10.07074083     245.21979802
Rb       2.19408999       0.11939012     146.34971820
O       24.95840351      10.99897247     314.72805503
Zn      22.49985979      26.55170885     320.82967723
Sc      50.57150656      22.99636514     585.41251636
Li      43.40969494      14.60517846     497.31250888
K       53.46006250      16.71790051     469.50167497
Pd      14.46585898       4.27786902     361.60636709
Rb      45.97593682      11.19640041     431.57020515
12
Lattice="6.962982177734375 0.0 3.7447211742401123 3.073760168169813 6.992716161722598 1.5608000755310059 0.0 0.0 8.832982063293457" Properties=species:S:1:pos:R:3 pbc="T T T"
Si       6.39392471       1.44821259       9.08690204
I        3.44341935       5.78690724       3.65580164
Se       5.02147403       5.26715468       8.06965407
La       3.88983122       1.95520904       7.76719129
La       0.49109238       0.47636338       8.02424503
La       2.33488313       0.41629305       4.38696015
I        7.64293638       5.42070904       4.34104463
La       9.31414886       5.46675442      10.41781969
La       5.63111172       3.92763477      10.69511325
Ga       1.40230774       2.72984193       6.17641711
I        5.23789577       2.16984748       4.75143684
La       7.35599635       3.65796623       7.15551909
12
Lattice="5.390439987182617 0.0 -0.9191455245018005 -2.9245468991631753 4.5283076634239325 -0.9197928309440613 0.0 0.0 5.424598217010498" Properties=species:S:1:pos:R:3 pbc="T T T"
Hf       1.25572838       3.38626628      -0.14481438
Ta       0.02216239       1.11995197       3.48873563
Mg       2.63872230       2.63096524       2.56808275
Mg      -0.12700484       4.13774541       2.56896110
Hf       1.43862313       0.34826474       0.77905286
Hf       3.99737729       1.89262281      -0.14572775
N       -2.13962523       3.78737897       1.69268131
N        2.00159893       1.48919201       4.36085647
N        3.43478402       0.75160694       1.69230340
N        4.80603791       0.00956824       4.37626705
N        0.62693092       2.23319010       1.68264140
N       -0.73935312       2.98215572       4.36166495
10
Lattice="7.243696689605713 0.0 -3.766090154647827 -4.608319129869415 6.743764564431227 -0.004560159053653479 0.0 0.0 8.857361793518066" Properties=species:S:1:pos:R:3 pbc="T T T"
In       2.05596956       5.31475164       3.91078827
Na       0.23408689       4.06351704       0.38560412
I        1.24585965       1.44299409       7.61990590
I        0.10302425       2.49350730       3.26960699
I        4.33914103       3.24522619       5.37177113
Bi       4.28246624       1.88454259      -0.67981397
I        4.26163840       0.16073773       1.93851449
I        3.45763829       4.51666107       0.81461164
Na       2.42182113       0.62000207       4.60190497
I        0.09701393       5.97090863       6.61376120
6
Lattice="4.4054646492004395 0.0 2.5630247592926025 1.4755325733248978 4.154151090040579 2.5625083446502686 0.0 0.0 5.097410202026367" Properties=species:S:1:pos:R:3 pbc="T T T"
Mg       1.48100764       3.68122180       3.12940103
Zn       2.21408474       1.08768733       1.84964826
Zn       2.94906510       3.15618467       5.68279817
Zn       2.21084271       1.08605276       4.40571023
Pd       4.41692476       2.64364474       8.23632491
Zn       4.40774840       1.08637997       5.68362428
10
Lattice="4.4002685546875 0.0 -1.4575095176696777 -0.39658006530713086 5.702456374231846 -1.2226160764694214 0.0 0.0 7.412449836730957" Properties=species:S:1:pos:R:3 pbc="T T T"
Sc       1.85759098       0.21832635       4.06824039
Pt       2.35569333       5.27280423      -1.84869018
Sc       4.10005924       4.11807321       3.44796495
Sc       0.70542008       3.88101900       0.55267767
Mg       3.43890971       1.74446880       1.46104613
Sc       0.71712237       0.90643774       0.59449432
Mg       2.43689831       2.57478294       5.82435958
Pt      -0.09924449       1.47883248       5.52268921
Pt       1.51417661       2.97979335       3.01154256
Pt       3.28068589       4.66615117       0.95789266
12
Lattice="5.212460517883301 0.0 -0.0006091740797273815 -0.004110872281478503 7.439163025850748 0.006331553217023611 0.0 0.0 11.163005828857422" Properties=species:S:1:pos:R:3 pbc="T T T"
La       4.26553367       3.32316463       4.26690794
Ba       4.25820092       7.01854379       0.56024631
La       1.65436669       1.51908241       2.49017286
Dy       1.65596587       1.51698364       9.77798351
Dy       4.26057716       7.03578041       4.32601418
Dy       1.65429560       5.10600868       9.78380673
Nd       4.26221555       3.32651436       8.03348022
La       4.26087723       3.32067910       0.53822718
La       4.25780627       7.02430544       7.96810358
Ho       1.65284640       5.11416386       2.52580084
Nd       1.65627545       5.19792907       6.12760325
La       1.65635260       1.45809454       6.15229269
10
Lattice="3.4026052951812744 0.0 0.49704527854919434 0.047137136640457884 7.067805462974186 1.1798878908157349 0.0 0.0 11.102346420288086" Properties=species:S:1:pos:R:3 pbc="T T T"
Se       0.35946214       6.44868556      11.44179719
Ti       1.72629145       6.47249765       2.44476218
Se       3.11944307       5.25717514       3.99746890
Ti       3.34074265       1.70060671      11.36655268
Fe       2.36060395       4.05213214       5.91800054
Se       1.87085801       3.02221823       9.69880497
Ta       0.38547159       3.96677949       7.70931745
Se       1.37632315       1.78088774       1.85153818
Se       2.12137769       5.79986499       7.52952790
Se       0.59253083       2.40221302       5.82606210
3
Lattice="4.218376636505127 0.0 2.429431915283203 1.4048587896762113 3.9781624371645363 2.429119348526001 0.0 0.0 4.868192672729492" Properties=species:S:1:pos:R:3 pbc="T T T"
Tb       2.02960258       3.28251534       2.82166680
Nd       3.43627705       1.29191017       5.25270248
Ru       2.03066564       0.29842957       2.82274169
5
Lattice="4.430053234100342 0.0 0.034196242690086365 0.07730823572366097 4.406011467755283 0.11005007475614548 0.0 0.0 4.509495258331299" Properties=species:S:1:pos:R:3 pbc="T T T"
Br       3.42827335       0.63822836       0.62202699
Cu       1.08195844       0.76019809       2.18383553
Cu       1.81084262       2.89519601       0.74233701
Cu       3.40589756       2.39794054       3.19602702
S        1.18130043       2.96086041       2.97690744
8
Lattice="4.5887932777404785 0.0 0.02291220612823963 0.021866315155473638 5.506514049305531 2.8715450763702393 0.0 0.0 7.161592960357666" Properties=species:S:1:pos:R:3 pbc="T T T"
Cu       2.25566266       3.75605558       8.54854238
Ho       2.26022303       3.78021770       4.71205425
Ho       4.54002220       1.48457311       2.12894883
Sn       4.55163798       3.93247806       6.88785868
Cu       4.54205693       1.50600991       5.44988882
Sn       2.24710195       1.32621323       7.11264195
Sn       4.55579565       4.55079284       2.78453095
Sn       2.24147175       0.70784544       4.05309864
11
Lattice="6.170168876647949 0.0 -2.0660653114318848 -3.2329063552452917 6.932761333290595 -0.21599270403385162 0.0 0.0 6.7070817947387695" Properties=species:S:1:pos:R:3 pbc="T T T"
S        3.18198540       3.18198863      -0.12027270
Se       2.02409819       3.62403790       3.22410593
Hf       3.11460098       1.50293756       1.89745571
S       -0.87340651       2.64574932       4.89624281
H       -0.25377905       2.94142549       3.04503946
Pb      -1.81582495       4.92342693      -0.05742918
Se       0.78606172       0.83457417       0.80643822
Hf       1.57536529       1.92602829       5.21922626
S        5.34248907       0.00565870       1.88372856
Se      -0.60223455       6.85750318       3.79200076
S        0.88064664       6.66652061       0.06510330
8
Lattice="28.832170486450195 0.0 377.44146728515625 35.546516291342414 9.034592793367095 377.2501220703125 0.0 0.0 393.21844482421875" Properties=species:S:1:pos:R:3 pbc="T T T"
Cs      31.08717444       5.04627665     680.42569820
Rb      31.06208018       3.15600887     503.44549769
Rb      37.01070045       2.83761479     488.18838328
Rb      19.74296858       4.60433098     467.81271390
Rb      45.96504986       5.08203814     760.47264842
Rb      14.10555665       1.36450320     352.28272511
Rb      15.79372386       0.71950239     543.54789985
Rb      21.60941019       1.17091126     364.06828938
10
Lattice="6.393257141113281 0.0 -4.303302764892578 -3.7076532120657935 6.62220015388582 0.4394454061985016 0.0 0.0 7.455687046051025" Properties=species:S:1:pos:R:3 pbc="T T T"
Pb       3.93311095       3.90512908       1.41170717
Na      -1.34815132       3.71199795       2.25193960
Se      -2.80041351       5.74894936       0.67771424
Na       1.32288016       5.62652569      -1.67957899
Se       5.28446589       1.54530980      -0.19975632
Se       1.19915362       3.66473293       0.50079830
Pb       1.22644679       1.28358213       5.85911678
Na       1.07648569       1.27985583       2.20473506
Se      -1.09535804       6.01059020       4.28831848
Na       0.12455184       6.21137049       1.55442690
8
Lattice="5.403573513031006 0.0 -0.9830175042152405 -1.1829721316882738 5.26800145591807 -0.9849260449409485 0.0 0.0 5.483803749084473" Properties=species:S:1:pos:R:3 pbc="T T T"
Hf      -0.02216709       3.72763499       0.38545303
Hf       1.04358274       1.49674595       2.44543159
Hf       2.59253146       2.39472485      -0.59142368
Hf      -0.14798999       0.71257500       5.18289887
Hf       3.78661525       3.18444437       2.15266478
Sb       1.22823020       4.58218382       3.17556672
H        4.52373696       1.94628765       0.43372393
Hf       3.66136630       0.16342960       1.46498993
9
Lattice="6.493303298950195 0.0 0.0013465841766446829 -3.2496808340255257 5.622606996729194 -0.001600481802597642 0.0 0.0 7.43278694152832" Properties=species:S:1:pos:R:3 pbc="T T T"
Rb       1.54877182       0.09699906       2.94092830
Cl       5.62134984       0.13886640       0.64193555
P        4.79490192       1.96917671       6.65619498
Mg       1.54786964       3.84486960       6.65740594
Cl       3.61744888       3.60374474       5.24281087
Cl       0.30187099       2.17071325       5.24516691
Cl       2.79316705       2.17392568       0.64071059
Cl      -0.52435092       3.60002811       0.64219429
Cl       3.96877465       0.14077468       5.24409502
14
Lattice="12.501777648925781 0.0 15.145135879516602 2.478068527891819 13.604107234713283 14.435454368591309 0.0 0.0 19.667699813842773" Properties=species:S:1:pos:R:3 pbc="T T T"
Bi      11.36400431      13.21445111      39.67580693
Nd       5.14932197       2.32605832      18.20147186
Nd      11.67328714       3.36273438      24.74872697
Tl      10.20568200       4.93965650      17.22210847
Nd       7.69160380       8.27278244      33.90567840
Nd      12.86238990      10.24611157      32.68739923
Cs       3.92022943       6.50931892      15.69841071
Nd       5.15450592       1.51109373       8.64163962
Nd       1.72454870       8.43963718      27.26981093
Tl       7.92446566      11.42865710      24.76279811
Tl       8.90035358       6.66601227      27.20473655
Sb       0.29220770       0.12665122       3.06338697
Cs       1.69343529       3.44482746      20.50719288
Tl       5.59933262      10.52586589      28.50441818
8
Lattice="4.977962970733643 0.0 2.6415536403656006 1.7489113105215779 4.654200505373257 2.6410694122314453 0.0 0.0 5.947515964508057" Properties=species:S:1:pos:R:3 pbc="T T T"
Na       4.53055419       2.19825169       5.91241910
F        2.95362387       0.55111012       6.11948284
F        0.56118286       1.29949517       5.12154952
Ta       2.91900572       4.52642844       8.88660177
F        3.23597785       3.45320614       7.33700994
F        6.11710700       3.84641708       5.71127350
F        3.52658313       3.10130768       4.06617555
F        0.84500774       0.94131561       1.84413187
6
Lattice="4.2622528076171875 0.0 -0.003810430411249399 -0.002829096346156086 3.999380303159068 -1.0650014877319336 0.0 0.0 8.048822402954102" Properties=species:S:1:pos:R:3 pbc="T T T"
Ge       1.42486301       2.91319721       4.34837135
Ho       3.55534388       3.53270891       6.66403810
Ho       3.55792076       0.78808697       4.39562671
Ge       1.42542292       1.40536479       6.71223515
Hg       1.42967542       0.15992898       2.03541309
Hg       3.55820638       2.15846567       1.49954315
10
Lattice="3.628436803817749 0.0 0.0083332359790802 0.014601712235010446 7.4243416248990455 -0.042085010558366776 0.0 0.0 7.427372455596924" Properties=species:S:1:pos:R:3 pbc="T T T"
In       1.59295615       0.05229245       5.99162798
In       1.60084960       3.78173622       7.33952540
In       1.59812058       2.40844210       3.61910932
In       1.60531521       6.12422325       2.24333616
Cd       3.41126925       1.23937658       1.09741064
Pd       3.41587868       3.88844942       2.15970480
Cd       3.41748874       4.94538822       4.79880248
Li       3.41322661       2.24593665       5.81553718
Pd       3.40780509       0.22993974       3.81386583
Pd       3.41953996       6.01924343       0.01538696
10
Lattice="5.407700538635254 0.0 -1.5067455768585205 -1.006130936034637 9.075657330686035 -0.7387085556983948 0.0 0.0 9.233590126037598" Properties=species:S:1:pos:R:3 pbc="T T T"
Br       4.31972810       8.10375929      -0.42275315
Cs       4.82607119       1.88456638       2.51629559
Br       2.10605943       4.31331736       4.11976184
Br       2.12586607       7.85368127       7.45826470
Cs      -0.58561215       5.28446538       8.01492941
Ag       1.64761403       8.11137967       4.92398743
Br       2.40239484       3.21352625      -0.91122117
Br       2.14041119       3.86090597       1.52787678
Br       4.36424091       8.21686139       4.19298788
Br       1.14607493       8.41630960       2.38750395
12
Lattice="6.456428050994873 0.0 2.2881667613983154 3.2255475094055024 5.941978477828936 1.1470952033996582 0.0 0.0 6.853233337402344" Properties=species:S:1:pos:R:3 pbc="T T T"
Y        6.06552115       2.61161166       2.32319027
Sm       6.06744354       0.62693211       5.74675425
Sm       6.06483670       4.59434080       5.74926030
S        7.67664997       2.63471626       4.56986259
Ce       2.83936487       0.62694397       1.17539842
Sm       2.83781664       2.60070678       4.60281909
S        1.17791331       0.62688925       5.77355192
Y        2.83782568       4.58497054       1.17756132
S        4.49981042       0.62713044       3.43112392
S        4.45628528       2.63558628       6.92600418
S        4.44678780       4.56141791       3.42696177
S        7.68416712       4.56159287       8.07049588
4
Lattice="9.022649765014648 0.0 30.548908233642578 6.674580931639809 4.603043164928757 25.88123321533203 0.0 0.0 25.60677719116211" Properties=species:S:1:pos:R:3 pbc="T T T"
Te      11.52336946       4.54158536      48.60807146
La      11.98716443       3.07917455      56.15592886
Rb      11.86957738       2.15829160      45.78276259
Ce       4.41481692       1.01984243      28.35792748
15
Lattice="6.7245988845825195 0.0 2.943167209625244 2.5912091358934637 6.615103951562731 4.579822540283203 0.0 0.0 8.031655311584473" Properties=species:S:1:pos:R:3 pbc="T T T"
Cl       6.26892461       3.12510154      12.37630088
Cl       3.18003635       3.65624591      11.02482233
Cl       1.69573365       0.08831979       7.97399700
Li       4.41822301       1.92467120       8.06062674
Li       7.42684552       1.87062397       9.74677139
Na       8.69395114       5.21551313       8.02340447
Na       5.42231354       5.19612505      10.55276146
Cl       3.06433149       3.14867698       6.60856146
Cl       5.09614337       0.36352800       5.86215160
Na       1.95000726       1.68570586       1.86145442
Cl       6.35370466       3.45221731       8.32035599
Cl       1.91571213       0.69476254       4.30956106
Cl       4.96579541       0.70115527      10.02262134
Li       6.65289546       2.10571954       6.46928864
Rh       4.10623064       1.92820405       4.33953197
12
Lattice="4.921258926391602 0.0 1.132469892501831 1.2844009243800374 5.55945603564281 1.923271894454956 0.0 0.0 8.460829734802246" Properties=species:S:1:pos:R:3 pbc="T T T"
K        5.96742133       4.93673738      11.25923443
F        3.38734476       1.94369428       2.85014225
F        3.09593034       3.64040868       8.56137604
F        1.29915642       0.88162080       1.43337246
Sb       1.75045264       1.06960899       3.30354752
F        4.17021421       4.92117594       9.33596382
F        3.95565376       4.94246477       5.16926965
F        0.14628798       0.09212872       3.72632294
F        1.98564035       1.27117055       5.20460499
F        2.55496895       2.17108610       7.74375554
F        0.83427205       2.77154220       3.33320935
K        5.23934112       3.35955124       7.14015740
10
Lattice="38.9110107421875 0.0 477.5621032714844 12.046102831988717 9.977063590337334 492.8687438964844 0.0 0.0 555.36572265625" Properties=species:S:1:pos:R:3 pbc="T T T"
Rb      12.62125218       8.59300216     784.39035723
W       13.31844075       1.90219632     650.10222302
Rb       8.95532541       2.93715333     227.19911422
Rb      14.06374900       6.59477137     784.73015574
Cr      32.95564773       2.41040794     500.06821535
Rb      28.13698565       8.14702061     832.73754214
Rb      38.23898932       5.01491772     827.94189978
Rb      40.22484212       2.81281569     705.28951936
Rb      38.61643731       4.31233590     755.70946108
Rb      33.56584260       6.16528563    1152.88740999
6
Lattice="52.52467346191406 0.0 608.7567138671875 -15.337533409064008 10.561398320186369 610.7987060546875 0.0 0.0 605.8822021484375" Properties=species:S:1:pos:R:3 pbc="T T T"
Rb      22.56160960       6.88156734     977.24799773
Au      12.16709646       3.47051189     464.33592202
Au      -6.57878652       4.69199833     686.30038725
Rb       6.76399968       0.24538430     210.16107971
Cl      38.07024581       9.94893638    1441.37887044
Rb      13.21671191       5.68208945     620.57858036
3
Lattice="4.8899335861206055 0.0 2.811891794204712 1.6301882803008425 4.611475742949767 2.81203031539917 0.0 0.0 5.642761707305908" Properties=species:S:1:pos:R:3 pbc="T T T"
Ba       1.85891882       4.13979357       6.36366926
Ba       3.48860532       1.83381890       3.54251479
Si       5.11956401       2.98595958       6.36004652
8
Lattice="4.071735858917236 0.0 -0.0006690436857752502 -0.0029502802222343477 4.072947387278177 -0.0029629026539623737 0.0 0.0 8.93514633178711" Properties=species:S:1:pos:R:3 pbc="T T T"
La       2.18335798       0.40731584       4.60170777
La       0.14845045       2.44802568       6.95924958
Ir       2.18216298       2.44771664       1.31418445
P        2.18403924       0.41030387       0.02300816
Ir       0.14723655       0.41097421       1.31491571
N        2.18203238       2.44407757       5.77970081
N        0.15508420       0.41180256       5.78160464
P        0.14787997       2.44863042       2.60176543
12
Lattice="4.55230712890625 0.0 -0.03855454549193382 -0.047029672195687655 5.8424782974553375 -0.07705646008253098 0.0 0.0 8.858694076538086" Properties=species:S:1:pos:R:3 pbc="T T T"
Zn       3.51694777       0.07226935       1.88019347
Zr       3.50406034       2.30122183       5.48731059
Zr       3.49970050       2.84291100       2.31864400
Zr       1.23514321       1.00060877       3.47782356
Zr       1.20945024       4.46269192       1.05123836
Zr       1.21611760       3.93603047       6.75734013
Zr       3.47704217       5.22472940       4.67755642
Zr       1.23188312       1.53735714       0.31313793
Zn       3.49592067       2.97799024       8.33420417
Zn       1.23890246       0.86405788       6.32188719
Zn       1.21762360       3.77064871       3.92113014
Zr       3.47187146       5.74822989       7.83479047
11
Lattice="6.111907005310059 0.0 -1.5451765060424805 -1.4416369049160531 6.771693749652942 -4.351315498352051 0.0 0.0 8.960851669311523" Properties=species:S:1:pos:R:3 pbc="T T T"
Hg       3.72697632       5.14926695       3.29962932
Na       3.56217578       5.78085235      -2.44448117
K        0.35419889       1.87459720      -0.46690865
K        0.80510801       3.72597510       4.49030673
Na       1.18387995       6.55187223       1.13397878
Hg       4.06950333       2.46756786       4.18206178
Se       5.92134653       0.57259414       4.07289477
Hg       2.24590991       0.94013951       2.23861137
Se       3.70656913       0.44121969      -0.67337126
Se       0.80212877       4.93281933      -1.36016202
Hg       3.41270061       3.93117412       0.46791531
4
Lattice="4.114221572875977 0.0 1.09482741355896 1.9068180744304186 3.6464224588607514 1.0957770347595215 0.0 0.0 8.268107414245605" Properties=species:S:1:pos:R:3 pbc="T T T"
Ca       2.12201002       3.34670395       6.41213113
Ge       3.74995360       1.84209709       8.57329606
Sr       5.20479326       2.72010550       3.09840186
Ir       1.73267676       0.61981266       7.87881113
4
Lattice="3.6451447010040283 0.0 2.1043930053710938 1.215562330234434 3.4366217953664377 2.1043713092803955 0.0 0.0 4.207510948181152" Properties=species:S:1:pos:R:3 pbc="T T T"
Fe       1.99936072       0.73165882       1.67740321
Mn       4.42995608       2.45002293       5.88644676
Os       2.00013583       3.30921893       5.88607267
Ru       3.21436619       1.59088868       3.78166696
9
Lattice="4.869868278503418 0.0 1.6127817630767822 2.4327852223666455 7.735417411942997 0.8097153902053833 0.0 0.0 8.157402038574219" Properties=species:S:1:pos:R:3 pbc="T T T"
Dy       1.12245343       1.21713292       1.71064980
Pr       5.19496777       3.83576369       5.72305176
Dy       2.76567078       6.44263726       4.90226545
Pr       4.37758646       1.23232092       8.19661816
Pr       1.94115234       3.83572127       7.38936819
Dy       2.76569684       1.21799511       4.90377371
Pr       4.37667198       6.43053103       8.19681290
Pr       3.56031296       3.83189073       2.50408332
Ho       5.99178013       6.44465812       3.32578192
10
Lattice="3.6690316200256348 0.0 -0.001391037367284298 -0.0017438181093533357 3.668982806647471 -0.00072139484109357 0.0 0.0 20.32616424560547" Properties=species:S:1:pos:R:3 pbc="T T T"
Tm       1.70129879       3.38421615       3.65557623
Tm       1.70134856       3.38739129       8.52855929
Mg       3.53684128       1.55330971      14.34601752
Tm       1.70107419       3.38628123      20.10045261
Tm       1.70271384       3.38534327      16.26688663
Mg       3.53741350       1.55213207      18.18030273
Tm       1.70078911       3.38769942      12.42171002
Sm       3.53705158       1.55072186       6.09218831
Mg       3.53654254       1.55423684      10.50612529
Mg       3.53738302       1.55230309       1.68927248
4
Lattice="3.6362228393554688 0.0 2.0964481830596924 1.2126409834624634 3.4284363766068835 2.09655499458313 0.0 0.0 4.197768211364746" Properties=species:S:1:pos:R:3 pbc="T T T"
Cu       0.31601949       0.72002684       4.44953713
Ga       3.95329377       3.29160497       6.54516824
Mn       1.52886117       1.57693445       2.34959415
Cu       2.74074644       2.43415338       4.44691230
5
Lattice="66.2628173828125 0.0 161.14036560058594 -198.96332132228417 89.19111728631964 -127.2971420288086 0.0 0.0 60.95632553100586" Properties=species:S:1:pos:R:3 pbc="T T T"
Rb    -130.32658497      81.33006110      48.11167506
Ca     -41.50554029      31.56499561      26.07594029
Rh     -88.96698209      62.32961532      52.54424347
La     -78.41841716      59.12184920      95.26080731
Rb      -2.76537456       5.97689084      66.17259816
11
Lattice="3.289839506149292 0.0 -0.6153900623321533 -0.6184477651602907 7.03700163255545 -3.3848507404327393 0.0 0.0 8.99616527557373" Properties=species:S:1:pos:R:3 pbc="T T T"
Pd       1.75361265       2.53915822       6.07642409
Pd       1.18778415       5.38355907       3.03828935
Sb       0.51582745       3.61506593      -0.47635095
Pd       0.46839488       0.96916357       8.31214743
Pd       2.52537535       2.75404049       1.14972142
Pd       2.26611006       5.69439785      -0.26275055
Pd       0.11097906       5.07676997       6.34420132
Sb       2.47565426       0.10929960       0.93393402
Sb      -0.28635378       3.44822943       4.27832606
Pd       1.24212187       1.19133841       3.38909043
Sb      -0.00684686       0.28770174       5.80314709
12
Lattice="6.188055515289307 0.0 0.4376832842826843 0.8637432211192076 5.3650720814523725 0.03587684780359268 0.0 0.0 6.725534915924072" Properties=species:S:1:pos:R:3 pbc="T T T"
Ce       5.12436731       1.32011364       1.37459670
P        2.39266406       0.56033091       2.66798490
P        3.64515939       4.65096578       0.94407393
P        0.67864242       1.40562679       5.35406095
Ce       1.99813920       3.91881475       5.12877632
P        4.42951611       5.24423688       4.45785382
P        5.61928750       4.08825509       6.98425300
P        4.06994249       1.82436101       5.44903219
P        5.76101068       2.22792487       4.06664959
P        6.38768049       4.69633918       3.50399237
P        1.07410032       3.09980389       1.05432073
P        2.87803496       2.87344118       2.45817459
11
Lattice="6.414355754852295 0.0 -0.1416236162185669 -0.5104527140174194 7.892233566271048 -1.0115008354187012 0.0 0.0 8.011526107788086" Properties=species:S:1:pos:R:3 pbc="T T T"
Fe       5.74857432       4.99009714       6.33568862
Br      -0.18647980       6.55317158       4.84301312
Fe       2.70536873       6.36937245       0.72380840
Br       3.01169654       0.24770822       3.37459886
Br       3.49142282       4.87325953       2.37995249
Na       5.93254526       0.71805159       3.67469992
Br       3.39865252       4.70735212       6.94468189
Br       0.32775586       5.77462408       0.60022891
Br       3.74709969       0.12503460       0.12360019
Br       0.04501758       2.87546184       5.82756696
Br       0.02576874       2.18677772       1.50194326
4
Lattice="3.3906021118164062 0.0 0.5187253355979919 1.653568763333552 2.959548899103617 0.519934892654419 0.0 0.0 11.331693649291992" Properties=species:S:1:pos:R:3 pbc="T T T"
Er       1.65262783       0.02363117       5.98209690
Lu       2.05529060       2.25145088       3.32934495
Lu       2.90256307       0.75633123       9.15564830
Sc       4.17086103       1.50543701       0.83729223
11
Lattice="7.057333946228027 0.0 1.569589376449585 3.2985440845584426 8.67548097279106 2.393141746520996 0.0 0.0 9.343148231506348" Properties=species:S:1:pos:R:3 pbc="T T T"
Sc       2.88669131       0.83458964       9.40262818
I        4.13693465       0.68950848       2.68345583
I        4.89336933       2.88226230       8.69056852
I        7.89504898       2.80488956       2.44775799
Te       4.11827208       7.58277434       3.33848966
I        8.20995240       7.53846309      10.99408834
I        8.14972520       5.91565245       7.91487233
I        1.59865413       0.92892252       6.78741696
Sc       6.40520416       0.82434139      10.20551615
I        7.98666111       4.45878146       5.56420614
I        4.49570237       5.45271444      10.93343691
12
Lattice="5.7290802001953125 0.0 0.02676854282617569 0.026032681550425724 6.318197502350327 -0.312766969203949 0.0 0.0 6.28770112991333" Properties=species:S:1:pos:R:3 pbc="T T T"
Li       4.44036061       2.24057583       1.90380653
Li       4.43841045       2.72293163       4.56474678
Li       1.58796120       5.54311261       5.03258650
Li       1.57936424       3.34372806       1.04121283
Li       1.57535545       2.85412980       4.66470621
Li       4.43247052       0.03804414       4.20177117
Pd       0.14941735       4.33515072       2.99270814
Pd       2.99896958       1.24619079       6.21929237
Pd       0.14126683       1.24568992       6.20828584
Pr       1.56726070       0.52957493       2.48141260
Pd       3.01673135       4.33357203       3.00825344
Pr       4.45309735       5.04240313       0.45374081
10
Lattice="5.421279430389404 0.0 -0.05970090255141258 3.2407334469585276 6.9764426601007585 -1.0721426010131836 0.0 0.0 9.301830291748047" Properties=species:S:1:pos:R:3 pbc="T T T"
Sn       5.13267689       2.49571985       3.42731127
Na       6.13084876       2.36972572       0.05959389
Na       3.62829112       0.94723243       7.71279437
Sn       2.98798168       5.27882660       5.54334909
Na       2.75288891       5.10397866       1.80273525
S        1.00256432       0.25783871       7.53219088
S        3.71486796       2.74196115       5.35288180
Br       7.45094900       4.51255593       7.92927295
S        5.20229715       0.63334281       2.09238144
S        5.49476051       4.37686031       2.07150608
8
Lattice="2.753072500228882 0.0 -0.37012961506843567 -0.0010694604551410587 4.279530391577712 -0.0006633948069065809 0.0 0.0 10.470412254333496" Properties=species:S:1:pos:R:3 pbc="T T T"
Li       0.09292855       2.25552938       1.49853084
Li       1.83711374       2.25561891       4.08082764
Si       2.49519577       2.25627498       8.96845464
Li       0.80860283       2.25567681       6.86074310
Li       1.25862793       0.11784648      10.19195407
Li       2.28940968       0.11417861       7.46374557
Au       1.61611373       0.11655608       2.42249719
Au       0.60101438       0.11300245       5.30914366
20
Lattice="17.94019317626953 0.0 72.03974151611328 -6.319925459569449 12.617309315342853 74.19973754882812 0.0 0.0 87.33763885498047" Properties=species:S:1:pos:R:3 pbc="T T T"
Rb      14.12500250       5.52703944     116.75928299
Rb       3.06666276       8.22456807     159.08214884
Rb       2.11584677       6.45090346     100.74743004
Rb      12.28457694       6.22139201     155.28323253
Rb      11.31352333      10.70326399     150.12449946
Pt       7.68599673      11.71869576     210.22280273
I        2.80796047      11.22732644     166.20395936
I        3.12277288       2.87241829      78.27327737
Rb       5.31101422       3.16348316     109.93179463
Pt       9.51122795      10.40888070     173.53595573
F        0.43376258      10.27609269     104.00506592
O        6.79095160       0.13251578      56.15013711
F       15.00392677       0.38470646     135.39648207
Rb       5.61185734       2.84124242      51.51515844
K       10.87839732       7.08672508     138.40461468
Rb       1.22505725       6.04078489     115.91023381
Rb      -0.43152061      12.32080975     114.31020849
Te      14.69280369       6.06704235     180.46328112
I       13.78924957       2.25414481      91.57509706
F        5.74164978      12.50934950     166.80189076
8
Lattice="3.5096709728240967 0.0 -0.022307507693767548 -0.05251088270678384 5.806826634426875 -1.8409961462020874 0.0 0.0 6.833492755889893" Properties=species:S:1:pos:R:3 pbc="T T T"
Tm       2.79739495       0.82742978       3.71157133
Sm       1.01639970       3.73108988       2.80419650
Rb       1.04295674       0.82688439       0.30696537
O        1.00357285       5.37429925       1.08283443
O        2.75722848       5.09793911       3.56944607
O        1.02948044       2.08723985       4.52673031
Rb       2.77097426       3.73114318      -0.62539520
O        2.78417222       2.36422489       2.01454910
4
Lattice="28.86890411376953 0.0 68.30072784423828 29.469062880309593 3.385093187359989 68.52102661132812 0.0 0.0 71.90148162841797" Properties=species:S:1:pos:R:3 pbc="T T T"
Sr      27.24809330       1.49798836     100.67932472
Ni      39.76266473       1.53670226     112.78026004
Ni      23.05452511       1.93624192     103.12076626
Cs      44.53313216       2.53783022     173.36453485
5
Lattice="4.251856803894043 0.0 0.9169519543647766 2.0363917373347253 3.7299762718949214 0.9223148822784424 0.0 0.0 10.457348823547363" Properties=species:S:1:pos:R:3 pbc="T T T"
Sr       5.04796650       1.83948503       8.83912450
As       2.48131754       2.83609031      10.47309904
As       3.36728589       0.84126240       6.28287950
Sn       2.27129348       0.18994606       0.96847627
Sn       3.57226092       3.48412093       5.33523917
5
Lattice="67.8468246459961 0.0 604.1539306640625 75.00781183999149 67.27275550667049 612.8032836914062 0.0 0.0 624.4354248046875" Properties=species:S:1:pos:R:3 pbc="T T T"
Tl      83.42879675      37.51871199    1146.84872568
Ru      79.53591066      65.33810226     882.60334238
Ba      21.91154453       3.27716165     286.64885527
Mg      14.40549530       8.61870209     172.67340885
Rb      85.06996443      49.76545981     832.78820811
4
Lattice="4.266900062561035 0.0 2.4623496532440186 1.422287510940407 4.024066418964185 2.461862802505493 0.0 0.0 4.927143096923828" Properties=species:S:1:pos:R:3 pbc="T T T"
Mg       3.79773978       3.05831275       5.35717341
Er       0.95395403       1.04721364       5.35957600
Cd       2.37670477       2.05266719       2.89532720
Zn       3.79839064       0.04014943       5.35770615
6
Lattice="4.727944850921631 0.0 2.6939666271209717 1.5676686373592192 4.462194913828939 2.694800615310669 0.0 0.0 5.441218376159668" Properties=species:S:1:pos:R:3 pbc="T T T"
Al       4.10716268       4.12502307       4.92944486
Al       0.95407502       1.89963049       2.23463826
Ce       4.10366798       2.45170955       7.65511934
Al       1.73567761       4.12447332       3.57872009
Ag       2.52922559       1.33670047       4.94792416
Al       1.73417766       4.12445204       6.30908498
6
Lattice="3.9075474739074707 0.0 -1.1879603862762451 -0.72070353725195 5.217020869872895 -2.3743011951446533 0.0 0.0 7.052112102508545" Properties=species:S:1:pos:R:3 pbc="T T T"
Tb       0.04068157       5.17471339      -1.16569113
Se       1.46315492       4.30524868       3.53144834
Tb       2.88473606       3.43531566       1.17748583
Tb       1.82145362       1.69322285       4.71482905
Se       0.39896298       2.56430952       0.01424011
Se       3.24568566       0.82502343       2.36578765
15
Lattice="7.4684929847717285 0.0 4.311171531677246 2.494435977947234 7.036197441510318 4.311882495880127 0.0 0.0 8.633655548095703" Properties=species:S:1:pos:R:3 pbc="T T T"
Tm       1.57356215       1.24555804       6.64294822
Y        5.30978510       1.24603384       4.48153057
Tm       2.82204390       4.76387421       8.79982969
Te       9.03599990       6.51612191      10.98318168
Te       7.78583633       2.98726961       8.81963863
Te       5.29185217       6.51561948       8.82158197
Te       9.06463602       6.53419762      15.24002035
Y        2.82222979       4.76370981       4.48395329
Te       7.82001153       3.01188864      13.09077759
Te       5.32544798       6.54083489      13.09146123
Sc       6.55770588       4.76291046      10.95433034
Y        6.55603206       4.76436071       6.63958948
Te       4.04938816       2.99223665       6.67137162
Tm       5.30931286       1.24545015       8.80037975
Te       4.07672344       3.01291761      10.92779948
20
Lattice="2.9872524738311768 0.0 -0.00015147657541092485 -0.0012995177247071808 8.550121208617353 -0.012091790325939655 0.0 0.0 8.5518159866333" Properties=species:S:1:pos:R:3 pbc="T T T"
Mn       1.73721360       0.39440172       3.51014900
Mn       1.73571646       4.66841310       4.18360181
Mn       1.73663845       3.54240334       7.77974018
Ta       0.24230591       5.59099278       0.22029000
Ta       0.24318936       1.31011364       7.46363800
Mn       1.73629484       4.10686868       1.70894584
Mn       1.73578263       6.58421899       2.26881748
Mn       1.73713834       2.31406253       5.41944844
Ta       0.24277073       2.61793803       3.19300391
Mn       1.73535592       5.89950768       6.54380147
B        0.24265015       5.17131245       2.77121535
Be       0.24143291       8.37770218       1.70161562
Ta       0.24201020       6.90342382       4.49564279
Mn       1.73674217       1.63228743       1.14627290
Mn       1.73511605       7.81630785       8.46016954
Mn       1.73561977       8.38323775       5.97445722
Be       0.24217484       4.10184580       5.98064237
B        0.24251999       3.03864603       0.64222196
B        0.24192826       7.31409904       7.04296470
B        0.24300829       0.90030504       4.92289189
11
Lattice="3.8560054302215576 0.0 -1.21708345413208 -0.677766609694153 4.890737915820057 -2.1509506702423096 0.0 0.0 6.724196910858154" Properties=species:S:1:pos:R:3 pbc="T T T"
Be       2.15756392       0.81425540       5.62979134
Co       1.55370473       1.50113841       3.72649251
Ga       0.50265507       4.20191038       0.38424414
Co      -0.26970184       4.42406544       4.65761638
Co       1.24562161       3.73092238       2.74735556
Co       2.87170450       4.87998904       1.17433481
Ga       3.13669631       2.32007810       2.00881534
Co       2.39431145       2.78414053      -0.34859345
Co       0.05163718       2.10216977       5.67306999
Co       0.76985770       1.63986806       1.21108270
Co       2.76520470       0.13726531       0.82611375
4
Lattice="5.016782760620117 0.0 2.897381544113159 1.6721430839403404 4.729025732437758 2.896900177001953 0.0 0.0 5.79249906539917" Properties=species:S:1:pos:R:3 pbc="T T T"
Ba       3.46016819       4.67859180       8.24250745
Cd       1.78782874       3.49727372       5.34587551
Cd       3.45992164       1.13193194       8.24066117
La       5.13236951       2.31425919       5.34579313
4
Lattice="3.7215118408203125 0.0 0.8510662317276001 2.7371501028528646 3.6432265146681146 1.440738320350647 0.0 0.0 8.036438941955566" Properties=species:S:1:pos:R:3 pbc="T T T"
N        5.09946869       2.75454867       7.79462342
N        2.30156950       1.99935122       7.08026695
K        3.78071199       0.22012765       8.80765208
K        0.88707924       0.89191598       4.63154594
11
Lattice="5.486918926239014 0.0 -0.2637057900428772 -1.766193720369288 6.362548410724908 -3.9204561710357666 0.0 0.0 8.82896614074707" Properties=species:S:1:pos:R:3 pbc="T T T"
Na       5.14317290       0.88856441       4.59479056
Cd      -0.38534274       6.02232654       4.55407581
Cd       2.98483416       6.08282894      -2.22399911
Cd       3.69450464       3.32829508      -0.91272111
Ag       0.13220815       3.83148969       6.08404523
Cd       0.85967189       4.94658238       0.78234790
Ag       0.96532820       2.43608705      -0.55978135
Cd       2.37972505       6.00096751       3.61649243
Cd       2.25955771       3.16503810       4.19974062
Cd       2.21643241       1.43949828       1.91046911
Ag       2.37417606       1.15520208       6.10584342
18
Lattice="5.878094673156738 0.0 0.007531123701483011 -0.8546692807013551 7.727306739707301 -1.488772988319397 0.0 0.0 8.956377983093262" Properties=species:S:1:pos:R:3 pbc="T T T"
Dy       2.58057255       1.01574259       4.69290905
Pt       1.72659188       7.51288307       0.72215923
Cu       0.37405799       5.94496193       4.75032734
Dy       4.67877370       1.83516256       8.07361068
Dy       0.09477448       6.63008430       7.49985268
Dy       5.59108186       0.59352593       2.57186509
Dy       0.19020182       5.20037271       1.99310311
Dy       3.21951097       6.04015300       4.71870193
Pt       5.66820418       0.48927634       5.41791237
Cu       1.38352241       2.54382362       0.86991688
Cu       2.99878851       6.93747764       7.44720400
Pt       3.98808561       2.71954884       1.90902684
Dy       5.12731228       3.17735190       4.52248141
Dy       1.60507596       3.65132467       6.79479919
Pt       1.94033267       3.67415187       3.57150758
Dy       3.10302501       5.02779857       0.61667007
Pt       1.87078380       0.92229005       7.47441813
Pt       4.35532322       4.43252496       6.93378871
15
Lattice="6.945827484130859 0.0 3.8286054134368896 2.395657157678798 6.525249526673387 3.8239758014678955 0.0 0.0 7.8348870277404785" Properties=species:S:1:pos:R:3 pbc="T T T"
Ca       2.58067732       2.52356644       5.99605389
P        3.80523500       0.94102303       3.99171459
P        7.15243574       0.97952742       5.85755000
Tb       2.60511130       2.48748628       9.93476144
P        7.09674275       0.95563357       9.94663845
Ca       3.77905946       5.77284664      11.81367276
Tb       6.05367619       2.50885574       7.89594790
P        8.36073073       4.12052320       7.80120839
Ca       7.26700948       5.76745328       9.82083288
P        3.74402224       0.89477883       7.98751154
Tb       3.93984848       5.88777271       7.90252939
Tb       7.24024922       5.79989397      13.75955439
P        4.95476434       4.02861043       9.94435798
Ti       5.83875920       2.35746720      11.83793165
P        5.00095720       4.06964582       5.85410614
9
Lattice="5.026958465576172 0.0 0.003911152016371489 -2.504709844439361 4.359161830065595 -0.005265300162136555 0.0 0.0 13.11129379272461" Properties=species:S:1:pos:R:3 pbc="T T T"
Ba      -0.48271464       3.38705060      11.58004534
Li       4.53949206       0.48283721       1.50139249
Ba       2.02919481       1.93633882       4.54998675
Li       2.02878683       1.93822580       0.92865869
Li      -0.48279564       3.38923859       7.65995557
Li      -0.48092267       3.38774174       2.08940752
Li       4.53896231       0.48201642       6.77667810
Li       4.53965248       0.48163711       9.35343895
Li       2.02907122       1.93325663       8.46250164
10
Lattice="111.50706481933594 0.0 262.3349304199219 61.76979175727229 18.180118389174392 258.4562072753906 0.0 0.0 311.83038330078125" Properties=species:S:1:pos:R:3 pbc="T T T"
Zr      90.80094319      13.44870082     390.26309774
Na     118.61905016       6.40569367     616.82210415
Bi     114.10277412      13.41436417     456.00418515
K       76.38066393      12.67651682     341.73761893
Sb      29.08164624       0.69490568     322.00115184
Rb      50.87435285       7.54728086     452.30062285
Cd     119.79276581      12.43404178     404.31083958
Rb      33.25478595       1.88028707      96.17868215
Re     106.37620536       8.55599136     573.58408533
Er      75.50730162       9.80411676     390.20075045
11
Lattice="6.4423041343688965 0.0 -2.3894176483154297 -1.8129944528366773 7.245238626618851 -2.362175464630127 0.0 0.0 8.548395156860352" Properties=species:S:1:pos:R:3 pbc="T T T"
Br       5.03816163       2.11125898       2.80921255
Br       4.11587624       6.12168963       3.69029354
Cu       1.00157864       0.90260176      -0.08560396
Br      -0.24952896       2.79777871       0.74666421
Br       3.95474639       5.14853580       0.18996638
Br       2.45599572       1.04109871       6.62137333
Cu       5.30036796       4.38983171       2.23026709
Br       1.17063369       4.57101519       5.18880281
Ba       4.84027215       0.32196956       0.19424388
Ba       1.20643297       5.55105011       2.14325874
Br       1.96552350       0.25841778       2.21814781
16
Lattice="7.128354549407959 0.0 4.08473539352417 2.391484077186987 6.714081223690077 4.0833516120910645 0.0 0.0 8.263397216796875" Properties=species:S:1:pos:R:3 pbc="T T T"
Li       2.53995612       5.50901461       9.59986377
Dy       4.90851578       2.15194698       5.47093155
Nd       1.34536032       2.15095131       7.56036131
Dy       6.10471841       5.50859280       7.51147303
Nd       4.90783010       2.15040365       9.60131601
Dy       1.34523930       2.15169926       3.43015598
Se       7.31850520       3.85086719      13.78273310
Se       3.73023662       3.91060962       7.52482876
Dy       2.54147932       5.50808536       5.46871202
Nd       6.10344441       5.50881411      11.64403757
Se       3.64453006       3.85370735      11.67705727
Se       6.17182911       0.45165436       7.52452544
Se       2.49790821       0.45039367       5.42049237
Se       2.48650883       0.44420577       9.69931606
Se       6.08646204       0.39026043      11.67725957
Se       7.33060291       3.85971941       9.50500123
4
Lattice="4.275740623474121 0.0 2.4628989696502686 1.4235903910513483 4.032333780418163 2.462527275085449 0.0 0.0 4.934333801269531" Properties=species:S:1:pos:R:3 pbc="T T T"
Tb       0.96735325       0.60835644       2.66261118
Tb       3.81618426       2.62541182       7.59338005
Ag       5.24163884       3.63374427       5.12223409
Co       2.39184708       1.61751465       5.12591998
8
Lattice="3.906987190246582 0.0 -0.003449510084465146 -0.005985556840649564 3.906947319276046 -0.0032734270207583904 0.0 0.0 10.80899715423584" Properties=species:S:1:pos:R:3 pbc="T T T"
Mn       3.15581122       2.99120647       9.33333774
As       1.20489172       1.03938842       3.94176697
La       1.20057581       2.99259230       6.45735342
As       1.19913218       2.99011174       0.00740728
As       3.15624956       1.03715238       7.85257232
La       3.15491948       1.03587030       1.41476218
Mn       1.20381926       1.03593760       9.33931904
As       3.15681308       2.98921099       3.93395608
10
Lattice="3.547851324081421 0.0 0.0025649573653936386 0.0049163842080191585 6.158812944777828 0.0002823931572493166 0.0 0.0 6.167322158813477" Properties=species:S:1:pos:R:3 pbc="T T T"
Be       3.27325361       4.77968354       5.17505562
Be       3.27075366       3.22152869       2.09108306
Nb       1.49510348       0.44622020       4.87501383
Be       3.26908695       1.69734894       3.61658532
Ir       3.27224636       5.53834907       2.85524285
Nb       1.49648406       3.52221821       3.91628772
Nb       1.49770757       4.47490753       0.83415062
Ir       3.26869526       2.46102274       5.93903663
Be       3.26786965       0.14248891       0.53515419
Nb       1.49619404       1.39713298       1.79365679
7
Lattice="4.6312031745910645 0.0 1.3033561706542969 2.1339134353883513 4.111860778162387 1.3035609722137451 0.0 0.0 8.91612434387207" Properties=species:S:1:pos:R:3 pbc="T T T"
La       5.79369559       2.31079361       5.01140238
In       2.92728929       3.38384311       6.32795503
Cd       2.09677201       2.87969213       9.28724217
Ag       4.02660994       4.05244654       2.40153933
Ag       2.93057781       0.57095088       6.31120253
In       4.02839707       1.23808012       2.39014346
Cd       4.86135308       1.74466651       8.33890690
18
Lattice="5.6327104568481445 0.0 0.0023552756756544113 -2.813480815303749 4.8789444022473 0.0009074736153706908 0.0 0.0 9.277237892150879" Properties=species:S:1:pos:R:3 pbc="T T T"
Na       3.02370095       4.48836284       4.97832083
Ca       3.02292508       1.23658303       7.30032362
Ca       0.20822446       2.86216562       2.65656110
F       -0.59342823       4.25305517       8.36325754
F        1.00992950       4.25503964       6.22915144
F        3.82843118       2.62651625       1.59130728
F       -1.40200718       2.86000899       6.22490167
F        1.00773860       4.72337244       1.58972162
F        1.01073616       1.46961993       6.22770162
F        1.80995639       2.86072787       8.36474608
Na       3.02418148       4.48794990       0.33885145
F        4.62862755       1.23750155       3.72448517
Cu       3.02269917       1.23494753       2.65686017
Cu       0.20565552       2.86377815       7.29405216
F       -0.59922610       1.47239467       8.36475429
F       -0.59298351       4.72154238       3.72427789
F        2.21951848       2.62584972       3.72534263
F        1.41979925       1.23771965       1.58864870
7
Lattice="4.1939520835876465 0.0 -0.23774844408035278 1.5209950327052717 3.93955608686641 -0.2237040102481842 0.0 0.0 8.785000801086426" Properties=species:S:1:pos:R:3 pbc="T T T"
Li       3.36405801       3.82621236       8.05581986
Li       2.35446603       0.25678821       4.77566910
Al       3.97818123       1.35970101       2.78482102
Ag       3.41278500       3.85891328       1.93843442
Al       1.86367970       2.79513882       3.97544846
Li       1.27600789       2.37163459       0.78222129
Y        4.40644790       1.67822083       6.11633001
8
Lattice="21.186952590942383 0.0 298.2116394042969 0.6620826537038619 5.055599278650474 306.4979553222656 0.0 0.0 306.492431640625" Properties=species:S:1:pos:R:3 pbc="T T T"
Sb       4.04234349       0.10935512     154.62710365
Sn       5.72117435       2.53698138     433.44141448
Sb      12.03440327       4.11261634     599.97098595
Dy      11.89334407       2.01907917     541.26834654
La       0.61886358       0.09784963     216.43925953
Rb       9.37913094       2.81563784     317.80393887
Sb      20.18569984       2.90474505     582.36922682
Eu       6.79159541       0.79795092     402.04125285
8
Lattice="4.804099082946777 0.0 1.4363502264022827 2.185857736565922 4.279582271511647 1.4357434511184692 0.0 0.0 8.773594856262207" Properties=species:S:1:pos:R:3 pbc="T T T"
Au       4.71958179       3.90114779       7.93253933
Ca       2.11575582       2.30732862       7.89968643
Au       4.31690005       0.71449036       9.30937120
Tb       5.21130496       1.26135499       6.29568232
Au       2.96701270       2.82875445       5.04139142
Tb       3.82593984       3.35489142       2.16782099
In       3.42511822       0.16750885       3.51524506
Au       1.26434241       1.78587179       1.98552552
9
Lattice="4.303831100463867 0.0 -0.0036064640153199434 -2.166627501899428 7.884647547300165 -2.996211528778076 0.0 0.0 8.723320960998535" Properties=species:S:1:pos:R:3 pbc="T T T"
Mg       0.21629494       6.36337475       5.41705232
Sm       0.22948036       1.10446666       7.40669964
Mg       2.37281492       3.81743453       5.97668867
Te       0.22124622       4.30847604      -1.17985553
Cs       2.37125785       6.76520462       0.26063807
Sm       0.22412801       2.81582037       3.05476740
Te       2.37755065       1.31062155       4.99692769
Te       2.37557907       1.23500250       0.98603623
Te       2.37080959       5.39407515       3.70394276
10
Lattice="4.008347511291504 0.0 0.004924367181956768 0.009447689294601175 5.658354024429552 0.008405743166804314 0.0 0.0 5.660722732543945" Properties=species:S:1:pos:R:3 pbc="T T T"
Nb       3.60279396       1.55875950       1.90494875
Na       1.60135732       1.55730960       4.73115368
Ta       3.60542976       4.38784107       4.74153471
O        1.59903370       4.38389069       4.74017400
O        3.60241703       2.97626028       3.32873397
O        3.59750274       0.13604477       3.32535867
O        3.59700712       0.13512382       0.48245503
O        1.59683363       1.55792325       1.90204231
O        3.60245368       2.97531594       0.48796199
Na       1.60261036       4.38587549       1.90971538
8
Lattice="23.244983673095703 0.0 278.887939453125 17.199132792966335 19.32027431062154 308.3065490722656 0.0 0.0 282.4927673339844" Properties=species:S:1:pos:R:3 pbc="T T T"
Sn      14.42924253       1.54134121     296.15045537
Hg      26.89911125      18.10723305     468.70546798
Rb      19.84867363       2.16259916     368.39010166
Rb      15.17828199       7.94646632     366.67100679
Rb      19.16269708      14.22957828     452.81371743
Rb      12.88036911       0.83863286     345.39379139
Rb       1.99294748       0.46015491     175.38862529
Rb       2.16438177       1.67570964      68.95812273
20
Lattice="7.919456481933594 0.0 -0.8290119767189026 -1.8763438351099653 11.770490895046937 -6.44719123840332 0.0 0.0 14.760580062866211" Properties=species:S:1:pos:R:3 pbc="T T T"
Rb       4.70575605       0.45370885      13.69843650
Rb       6.06357304      11.10196831      -3.69999160
Na       0.52799520      11.02335182       3.74127639
K        6.73487143       6.73084229       4.55444083
Rb       4.33689033       3.12183573       8.81478934
K        5.99770749       8.76008050       0.40328238
Rb       0.30029350       2.37091920       7.04074339
Rb       2.84625608       7.68324775       7.94402421
K        4.48956639       4.96034492      -1.39023302
Rb       2.34934904      10.92552337      -0.29892924
K        0.59878680       2.70147231      11.81175378
Pb       4.01086798       8.14303184      -3.01154615
Rb      -0.95691604       6.87264902      10.12057401
Na       4.63154702      11.11137154       3.43615329
Rb       0.22913572       3.67785956       1.63644250
K        0.83322788       7.23311873      -1.33731475
Pb       1.69553356      10.06440276      -4.12096589
K       -0.91261895      10.64682724       7.71583774
Rb       4.15244705       2.41933565       3.22684684
Rb       2.64870793       7.35574649       3.16441592
8
Lattice="5.920872688293457 0.0 -1.3334238529205322 0.18716727275228784 6.102441775757879 0.06476704031229019 0.0 0.0 5.751896858215332" Properties=species:S:1:pos:R:3 pbc="T T T"
Nd       1.07264053       2.19863887       4.81877559
Ge       4.91766531       4.25421830       1.97736161
Ge       0.67869846       5.32681384       5.05538275
Ge       3.89167521       1.10253075       3.66553328
Nd       3.89925786       4.16217508       4.88660896
Nd       4.90305018       1.14172471       0.74059903
Ge       2.23718262       2.22113690       1.88599772
Nd       1.86600983       5.21970949       2.11656006
19
Lattice="8.40848159790039 0.0 -2.431464672088623 -5.214431230659159 8.599847156706653 -3.1798884868621826 0.0 0.0 9.29361343383789" Properties=species:S:1:pos:R:3 pbc="T T T"
Cl      -1.06134876       6.00497908       0.71470102
Cu       0.20906555       6.54667995      -0.92791474
Ag       3.58364502       3.03687644      -2.47991844
Cl      -0.91074891       2.10143956       1.42804785
Cl      -2.47068554       8.46961423       3.60192774
Na      -0.67162844       5.98686976       3.65442581
Rb      -0.42259573       1.20486834       6.55065395
Cl       1.58142678       3.54156850      -1.37104581
Cl       1.87975348       7.76584034      -1.59530228
Cl       3.85798265       1.83288168       0.96528828
Cl      -1.98312810       3.52984863       4.68552309
Cs      -3.88197302       7.92260804      -1.34354417
Cl       3.27921249       2.17289305       4.19361724
Cl       5.93895716       2.32472912      -2.52949254
Cu       4.24076771       3.31495466       2.56708604
Cl       2.79270076       5.02360342       3.44384870
Cl      -3.84774325       6.76840982       3.24033558
Cl      -1.01755495       6.24030902      -2.62874944
Cl       1.61682338       7.50211902       3.34918849
6
Lattice="15.575390815734863 0.0 112.5058364868164 10.100899308414341 1.9768831750501583 90.1910171508789 0.0 0.0 95.03604125976562" Properties=species:S:1:pos:R:3 pbc="T T T"
Sr       2.79649124       0.37466367      87.33083199
Ce       8.31809434       1.52601350     117.34633810
I        6.20323662       0.99660106     106.19979054
Rb       7.80506533       0.50086543      67.71884613
Pt       9.09497588       1.34045152     153.59567702
Rb       9.59192738       0.37700852     109.55567860
9
Lattice="4.267584323883057 0.0 -1.8492798805236816 -1.1315102402782886 5.0991232444867665 -1.3564751148223877 0.0 0.0 6.810182571411133" Properties=species:S:1:pos:R:3 pbc="T T T"
Ga       0.11553150       3.46063772       2.87784900
Ag       3.55627727       1.60359891      -0.91091702
Ga       0.30675923       2.80479412       5.45849754
Cu       2.33936076       4.09930403       4.01155180
Ga       0.10574070       4.99655095       0.54603870
Al       3.77412365       0.62489430       1.99861902
Cu       1.99746446       1.59528517       3.70029330
Al       1.25239141       0.36594450       6.05071777
Ag       1.87275591       2.82896518       1.04468189
9
Lattice="4.217637062072754 0.0 0.08880063146352768 -0.1569434942136716 5.607615979940127 -2.673541784286499 0.0 0.0 6.682528018951416" Properties=species:S:1:pos:R:3 pbc="T T T"
Ba       2.33422759       4.92157911       4.29580554
Ba       0.11566981       3.24542053       0.89161843
Na       1.19060154       1.48012099       4.21639335
F        2.14946211       5.37188723       0.27074375
F        0.22172189       3.40636609       4.93217268
F        0.13489248       0.34309757       2.33913458
F        0.22724844       5.29743294       2.67934921
F        2.23000039       1.89564794      -0.18348527
F        2.16703236       2.94235380       2.60495778
10
Lattice="3.8130316734313965 0.0 0.0010462047066539526 0.0014232933289024063 3.8122548784282353 0.001281399978324771 0.0 0.0 19.634082794189453" Properties=species:S:1:pos:R:3 pbc="T T T"
Tl       1.98112611       3.42164364      11.29056981
Sm       0.07373348       1.51499097       9.31585829
Tl       1.98173344       3.42118828      15.05934183
Sm       0.07361158       1.51437143       1.37326243
Sm       0.07311725       1.51473397       5.34452182
Sm       0.07403475       1.51440176      17.03782292
Tl       1.98131595       3.42001055      19.02922638
Tl       1.98075226       3.42168977       7.31726685
Dy       0.07402613       1.51544826      13.17285053
Tl       1.98026094       3.42181316       3.36171092
6
Lattice="28.099586486816406 0.0 915.6205444335938 4.32526362497799 25.7405844019789 646.9241333007812 0.0 0.0 753.4630737304688" Properties=species:S:1:pos:R:3 pbc="T T T"
Rb      13.61909267       9.12162717     982.51289168
Pd       4.61525945       8.53300894     788.79088897
Rb       4.96550459       2.34661906     336.11617877
Li      18.09955775      12.66091119    1511.96830340
Re      27.49887119       1.72441859    1057.23536893
Sb       7.27015092       2.43882530     991.34235162
4
Lattice="4.825420379638672 0.0 2.7904231548309326 1.60980979017711 4.550415790233178 2.7910385131835938 0.0 0.0 5.574779510498047" Properties=species:S:1:pos:R:3 pbc="T T T"
Eu       4.62496382       3.06275818       5.88174657
Eu       1.40853093       0.78890011       5.87804496
Ag       6.23543194       4.20287070       8.67571004
Ag       3.01412762       1.92631332       3.09095203
10
Lattice="6.205053329467773 0.0 -2.0096874237060547 -3.7457609921043233 6.702260750955464 0.05180185288190842 0.0 0.0 7.492493629455566" Properties=species:S:1:pos:R:3 pbc="T T T"
Ba      -2.05331000       3.68497273       6.20189805
Ba       1.99149673       6.36653322      -1.10027278
Tl       5.49643676       0.57872929       2.55387993
Tl       4.33324209       2.91373829       0.38411683
Tl       1.12928784       3.38321908       0.70156166
Tl       2.41625889       0.60560730       6.08770623
Pd       1.01597381       2.84404179       5.37449596
Tl       2.03782971       1.20976127       2.86333680
Hg       0.21649007       4.87688197       3.72976767
Au      -0.76002837       5.72261633       1.09990548
8
Lattice="4.371578216552734 0.0 0.4394993185997009 0.7898664160577901 7.535761391570807 -0.4935716390609741 0.0 0.0 8.362353324890137" Properties=species:S:1:pos:R:3 pbc="T T T"
Er       5.03801624       6.56335660       6.89136209
Se       4.46459243       0.90485578       5.46863911
Tl       4.63723639       2.79124678       2.95154945
Pb       2.44779080       2.79154929       6.90944446
Tl       2.84777694       6.55565654       2.48316410
Se       4.81421817       4.68251191       0.43506584
Se       2.68383667       4.96038105       5.02093790
Se       2.23469854       0.62912433       0.45105692
4
Lattice="63.02677917480469 0.0 977.782470703125 17.151420277925695 19.0262100270302 1007.5059204101562 0.0 0.0 1031.89453125" Properties=species:S:1:pos:R:3 pbc="T T T"
Os      29.54972728       7.72386082     995.71398229
La      44.27609710      15.87094815    1319.54397556
Ce      17.61761779      10.24769416     823.27369842
Tl      38.01337813       1.35788583    1205.52565037
8
Lattice="4.0386481285095215 0.0 0.5042234063148499 0.6052656548022168 6.365681158517065 1.1274733543395996 0.0 0.0 8.98878002166748" Properties=species:S:1:pos:R:3 pbc="T T T"
Te       0.40639403       3.01090509       7.85281892
Te       4.14291541       4.62023629       2.53347575
Te       2.14837056       1.42108151       1.23589520
Te       3.08640125       6.16263725       8.25438547
Cl       3.52040315       3.02148438       5.93272993
Ir       2.27956989       4.03884502       9.63161062
Ir       0.30183388       0.40281690       8.54355837
Cl       1.72123721       0.46099666       3.45255286
8
Lattice="5.410792827606201 0.0 -0.002944738371297717 -0.007933425103153145 6.143343094456975 -3.5648207664489746 0.0 0.0 7.0896477699279785" Properties=species:S:1:pos:R:3 pbc="T T T"
In       0.37123958       3.48680160       1.43983800
In       3.07511480       4.57300588      -0.21313920
In       0.37381154       0.48335980       3.33981019
K        3.07584082       4.58520636       3.33492038
In       3.08001629       1.51944885       1.55964564
In       0.37136481       3.47673407      -1.85863913
In       3.08013520       1.51627662       5.11320413
In       0.37594339       0.63829944      -0.20806133
6
Lattice="5.428328514099121 0.0 0.005500176455825567 -2.711726547234662 4.703659820479874 0.003180247964337468 0.0 0.0 6.632471084594727" Properties=species:S:1:pos:R:3 pbc="T T T"
Ce       1.61664086       2.98888178       2.89115695
Ce      -1.10166778       4.55747929       1.23138056
Ce       4.32633968       1.42109031       6.21121829
Ce      -1.10230603       4.55741004       4.54532347
Hg       1.61097407       2.99029396       6.20744091
Hg       4.32736749       1.41944446       2.89060031
4
Lattice="25.883115768432617 0.0 181.3262481689453 25.21704505820344 4.915359018416061 181.18997192382812 0.0 0.0 177.58505249023438" Properties=species:S:1:pos:R:3 pbc="T T T"
Sb      12.12534508       2.34748468     228.88480716
Sb       5.44538545       0.80970041      74.36486547
Sb      24.41805909       0.28926121     193.61592968
Tl      27.55894748       1.71387620     226.34180568
5
Lattice="4.878242492675781 0.0 0.002006653230637312 0.0014261020392930994 5.143870632847501 -7.319531141547486e-05 0.0 0.0 5.1450910568237305" Properties=species:S:1:pos:R:3 pbc="T T T"
Dy       1.11769549       0.25032981       4.41409870
Ce       3.55665218       2.82249228       4.41524968
Co       1.11724016       2.82300491       4.41220196
Dy       1.11898263       2.82214367       1.84049437
Al       3.55730334       0.25032667       1.84204088
16
Lattice="7.766499042510986 0.0 4.320623874664307 2.6795320847681117 7.290776514276343 4.321308135986328 0.0 0.0 9.137661933898926" Properties=species:S:1:pos:R:3 pbc="T T T"
Tb       9.65330851       5.42621387      10.46931126
Na       8.31293555       1.78085071      12.87854040
Na       9.65430309       5.42729898      15.03935265
Na       4.43145514       1.78026079      10.71756589
Te       3.21756399       3.63864817       8.32639733
Te       8.32218445       7.21376001       8.29205057
Tb       8.31391843       1.78112937       8.31012668
Dy       4.43070829       1.78171136       6.14730179
Na       5.77037177       5.42630730      12.87912660
Te       5.75450081       0.00235035       8.32498561
Te       7.09900954       3.64409869      10.49126403
Te       3.10578857       3.55887132       3.97095692
Tb       5.77017429       5.42681791       8.30857197
Te       6.98060519       3.56020108       6.12747048
Te       1.88244561       0.00299241       6.17249144
Te       4.44267769       7.20988544       6.12881516
4
Lattice="2.936217784881592 0.0 -0.01777808740735054 -0.022389417411924906 2.935627435867078 -0.018502281978726387 0.0 0.0 5.884194374084473" Properties=species:S:1:pos:R:3 pbc="T T T"
Mn       0.36055302       1.85695721       5.22834570
Fe       1.83895028       0.38668747       0.72598365
Rh       1.83818002       0.38788488       3.65560962
Mn       0.35860550       1.85278961       2.08563927
4
Lattice="194.48233032226562 0.0 1234.8848876953125 139.0559734773287 315.079358640547 1192.6302490234375 0.0 0.0 1443.4366455078125" Properties=species:S:1:pos:R:3 pbc="T T T"
Cd     234.56868006     246.26638306    2222.72567564
Hf     144.63553868     305.50151642    1314.26307832
Sr      94.54983985     152.49692512    1665.25220936
K       81.45551970      53.27147831    1000.96256868
18
Lattice="31.944324493408203 0.0 261.400634765625 49.78542205608392 0.4402728439201115 334.4989013671875 0.0 0.0 318.5371398925781" Properties=species:S:1:pos:R:3 pbc="T T T"
Rb       9.82839499       0.03959804     258.93142571
Rb      40.17952444       0.16881156     341.06395100
Rb      22.04378006       0.11856017     422.67754604
Er      36.46968857       0.30505645     303.71696553
Rb      24.11479914       0.12441369     324.12298546
Te      32.00313950       0.22149950     335.52203487
Rb      47.24977633       0.34543320     616.25068032
Rb      35.09985702       0.03950610     334.40655427
Rb      22.64538100       0.11989620     407.90538358
Rb      43.61938777       0.18803906     520.14889759
Rb      35.92674652       0.15902418     347.16503880
Rb      17.55064943       0.07271921     283.08182789
Rb      74.43852921       0.40319278     631.89242096
Rb      59.56593956       0.40961923     482.29973636
Rb      56.88294586       0.28685127     701.71109542
Rb      11.04703306       0.09250062     288.01565683
Rb      41.75444399       0.15075806     540.24015102
Os      57.17613709       0.34163712     603.02901479
14
Lattice="5.9792256355285645 0.0 -0.007153717335313559 -3.001657989247662 5.171717593823062 -0.010928728617727757 0.0 0.0 8.319162368774414" Properties=species:S:1:pos:R:3 pbc="T T T"
Be       4.11792298       2.61883381       5.65809073
Be       1.13141386       0.89415201       0.70612017
Tl       1.12134576       4.34337027       7.33206191
F        4.11579300       2.61746176       7.22036236
Tl       4.11592213       2.61863560       1.38328513
Tl       1.13425773       0.89770662       4.97519441
F        1.13110390       0.89527584       7.46303442
Rb       1.12339076       4.34312212       3.17771675
F        5.82885924       0.15241203       1.23786855
F        4.11927205       1.13911386       5.12518028
F        1.12951118       2.37507972       1.23635229
F        2.83230295       3.36192395       5.12360375
F       -0.57960960       3.36274423       5.12876800
F        2.41653896       0.15252035       1.24355049
4
Lattice="66.49639892578125 0.0 751.0549926757812 75.69940398829112 8.099009106172579 747.055908203125 0.0 0.0 806.34033203125" Properties=species:S:1:pos:R:3 pbc="T T T"
Re      54.83801032       1.04369573    1355.24671237
Ag     117.40814371       6.62646147    1496.42222411
Pr     113.40827681       5.92749851    1532.94652215
Rb      70.22683144       0.99663246    1283.92068932
10
Lattice="70.79936218261719 0.0 667.639404296875 59.39556082570289 17.955620793598406 661.0595092773438 0.0 0.0 707.2203979492188" Properties=species:S:1:pos:R:3 pbc="T T T"
O      104.26547911      15.18255497    1531.43143042
Rb      64.84658670      13.29704642    1274.39016424
Rb      53.86285571      13.72559449    1189.89376646
Tm      86.69838587       5.44932644     939.82126087
I       25.22175747       3.98782654     519.09292311
O       42.65693303       5.67677564     519.81020848
Pb      60.15359572       4.17790649     869.35278997
Rb      82.40677821      15.60374944    1484.78234713
Re      78.57976781       5.49748181    1012.78849101
Mo      58.17253717       8.51368546     734.06279101
4
Lattice="4.043115139007568 0.0 2.1359026432037354 1.411670813868369 3.8012576137973166 2.135688543319702 0.0 0.0 4.8021769523620605" Properties=species:S:1:pos:R:3 pbc="T T T"
Li       2.95927034       3.38784100       4.32497840
Au       1.52597082       2.38911006       2.18740887
Sn       4.25665608       1.47261808       6.75905961
Au       2.91324776       0.54169484       4.44934207
3
Lattice="2.9459657669067383 0.0 0.00021233904408290982 -0.000654674348967898 3.621900976141221 -2.0928471088409424 0.0 0.0 4.181238174438477" Properties=species:S:1:pos:R:3 pbc="T T T"
Ti       1.83190578       3.24105296      -0.41101224
Si       0.35968676       0.82556955      -0.40771219
Pt       0.35909663       2.03412835       1.67977009
12
Lattice="6.863192081451416 0.0 1.3596158027648926 1.5139336732478332 8.595934813661598 2.240902900695801 0.0 0.0 9.531381607055664" Properties=species:S:1:pos:R:3 pbc="T T T"
Cs       4.90427923       5.06420543       3.72876126
Br       6.49600624       2.73711135       7.03129447
Br       7.81499955       6.59057828       6.12376094
Sn       0.57449499       0.40381589       2.80535039
Br       1.87584871       3.72454596       1.66260872
Br       3.92375263       7.00228172       8.30596891
Sn       1.06621921       2.49605349       8.93618559
Br       3.09241552       3.75586843       6.95097768
Br       3.82100530       8.52955017       2.92454739
Br       5.58517872       1.53682097       2.40296519
As       5.23428275       4.95938321       7.66746358
Br       6.50050826       5.09426136       9.97701864
14
Lattice="5.7223992347717285 0.0 1.3575009107589722 0.0973310665129076 5.854339284596561 0.15761838853359222 0.0 0.0 8.516061782836914" Properties=species:S:1:pos:R:3 pbc="T T T"
La       2.51115943       3.05104576       5.60703807
La       1.48108440       5.72665338       1.05067837
Al       5.48096364       1.56895372       5.46173848
Al       4.10661586       4.40740302       2.71251606
Al       4.26055911       1.65934639       2.99559106
Al       2.20328641       0.16430332       3.96554065
Al       0.75626458       0.10589199       6.18310090
Al       1.63034447       2.76444644       2.54456485
Al       4.44365104       0.40149374       9.12395936
Al       5.57679725       4.59633694       5.07966589
Al       0.38017719       2.81031763       8.47081496
Al       3.13955474       2.84729036       8.95672387
Al       3.52288681       0.04020188       6.59514949
Al       5.14491321       3.50447048       7.42249424
8
Lattice="266.3772277832031 0.0 1799.3031005859375 -23.737939624254416 50.6739099491079 1615.6417236328125 0.0 0.0 1611.411376953125" Properties=species:S:1:pos:R:3 pbc="T T T"
Rb     238.20476484      19.37426626    3762.26251313
Cr      52.06850139      38.34732064    3191.74078517
K       94.48707517      41.14533803    3478.21341934
Sc      79.38048922      10.06833107    1332.77322802
Rh      34.02191898      46.54904577    2697.78018555
Rb     253.63301673      15.54999686    2738.57915935
Rb      71.41533929      33.94706240    2599.18624597
Cu     174.60629366      35.83667624    2812.57946165
12
Lattice="6.20585823059082 0.0 -1.4962067604064941 -0.2576308460940566 5.715146253485911 -2.9461591243743896 0.0 0.0 7.835796356201172" Properties=species:S:1:pos:R:3 pbc="T T T"
Ce       4.50354340       4.83061536       2.66574627
Tm       5.32485716       1.30830181       2.85369867
Tm       3.55524766       3.39694048      -2.30339912
Tm       0.66253036       4.92641070      -1.25230754
Tm       2.51863045       2.26368588       1.03767364
Os       4.57409836       0.57220424      -0.15206914
Ce       1.93970729       0.33902260       6.17787846
Ce       5.84794285       3.49514046       0.10482269
Os       6.10709344       2.00385770      -1.97638060
Os       1.02396014       3.49658413       3.92612127
Os       3.17900919       4.88043633       0.30641443
Os       2.22391822       1.29653238       3.65057695
6
Lattice="3.0908429622650146 0.0 0.00190847332123667 0.005701352354053109 3.0905420643774564 0.0021304492838680744 0.0 0.0 9.91919994354248" Properties=species:S:1:pos:R:3 pbc="T T T"
Al       1.31588225       0.69277425       8.64177200
Pd       2.86577502       2.23762257       3.68482659
Al       1.31605090       0.69366943       5.20023718
Au       2.86308595       2.24008012       6.91751534
Al       1.31613975       0.69274492       2.16194265
Au       2.86415166       2.24005489       0.44358099
4
Lattice="4.299149513244629 0.0 1.8308113813400269 1.7613523800501407 3.922353782603786 1.8292301893234253 0.0 0.0 5.968384742736816" Properties=species:S:1:pos:R:3 pbc="T T T"
Sr       2.09847875       1.32359091       7.01024887
Cu       0.83748430       0.50746590       4.00407820
Li       3.31622758       2.11227499       4.15102959
Bi       5.09779437       3.26465153       5.92795032
4
Lattice="3.7592921257019043 0.0 0.007541636470705271 0.008493968831183363 3.7586156713315204 0.006611460819840431 0.0 0.0 7.608736515045166" Properties=species:S:1:pos:R:3 pbc="T T T"
Sm       0.25606169       2.17045510       2.05453393
Er       0.25661899       2.17043090       5.86170191
Cd       2.13193561       0.29035389       0.05286404
Cd       2.13294778       0.29116457       4.06105766
11
Lattice="3.321906805038452 0.0 -0.5022139549255371 -0.1939019116485135 4.787023884577732 -0.8274322748184204 0.0 0.0 13.251432418823242" Properties=species:S:1:pos:R:3 pbc="T T T"
Lu       1.08057268       2.37816895      12.09150368
H        0.31770165       3.40096648       3.57903955
Lu       0.29783933       4.42347497       9.83242971
Mg       2.64220468       1.38409248       6.48041438
Pd       1.18621650       1.81928719       9.00304106
Mg       1.84958378       0.72027240       2.11098062
Pd       2.73361022       0.11234472      12.73041210
Mg       2.10260344       3.35867076       4.12741305
Pd       0.56920067       0.87335690       4.60093923
Mg      -0.00148155       3.07531495       1.63116106
Mg       1.53432336       3.94458216       7.17099084
4
Lattice="4.764213562011719 0.0 2.7433149814605713 1.5884917284475932 4.491542315366248 2.7452542781829834 0.0 0.0 5.497265338897705" Properties=species:S:1:pos:R:3 pbc="T T T"
Y        2.38388144       1.85560433       5.69851445
Sr       5.56067241       4.10201787       5.69700415
Hg       0.79708767       0.73297161       2.95496401
Sn       3.97170487       2.97830746       8.44513624
14
Lattice="6.243699550628662 0.0 -0.0020582820288836956 -3.133839428358044 5.397249318410685 0.0004610049072653055 0.0 0.0 8.498247146606445" Properties=species:S:1:pos:R:3 pbc="T T T"
O       -0.35448190       1.72724649       4.36085570
Rb       4.00959722       0.63785802       2.03152184
Cs      -2.23963367       4.23709629       3.72213946
S        0.87976443       2.44189381       3.87899792
Cs       0.88051667       2.43635781       7.96137380
Rb       4.00808905       0.63717513       6.28256588
O       -1.01091669       4.94612911       0.12354940
O        2.11209986       1.72892368       4.38808924
S       -2.24419199       4.23479323       8.12369155
O        0.89063113       2.43427335       2.38885477
O       -2.24660351       4.24286085       6.63981138
O        4.00010165       2.81105985       0.10794933
O        0.87371037       3.85992005       4.36580222
O        2.75651117       4.95028292       0.12087149
10
Lattice="4.260237216949463 0.0 -0.31517112255096436 -1.7748265208701925 5.719401987323055 -0.6839136481285095 0.0 0.0 7.829418659210205" Properties=species:S:1:pos:R:3 pbc="T T T"
Ag       2.54505198       0.07270632       0.75162335
Pd      -0.63727159       2.18418924       4.08675020
As       0.63999654       4.41407481       4.24102163
As       2.38631417       3.62267992      -0.07994827
Ag      -1.52361175       5.62659287       6.16108736
As       0.69862871       2.86802516       1.97222784
As       2.26244781       1.54730212       5.92431630
Pd       0.14619507       3.16860677       6.52175659
As       1.62050997       0.84282938       3.09022392
Pd       2.52038507       4.65709018       2.47557350
11
Lattice="2.930109977722168 0.0 0.03558897599577904 -0.36295929091827267 8.180501914960212 -0.2169186770915985 0.0 0.0 9.341444969177246" Properties=species:S:1:pos:R:3 pbc="T T T"
Sn       0.21347423       1.52988251       4.26409555
Sn       0.00590660       1.42110864       8.99434206
Ti       1.30458420       2.88784529       6.61244998
Mo       2.39305880       8.15639566       6.47563282
Ti       2.68972539       4.27891596       4.38222672
Ti       1.05409599       6.97762816       4.38024238
Ti       0.97190554       7.02660863       8.75933306
Sn       2.61202791       4.29431862       8.98974701
Mo       2.55199017       5.66054627       6.53079313
Ti       2.12571541       0.34472101       2.07101898
Sn       2.53870880       5.88317623       2.09663219
10
Lattice="5.807668685913086 0.0 0.05639925226569176 -2.978543663003108 7.552386921087832 -1.9298458099365234 0.0 0.0 8.583269119262695" Properties=species:S:1:pos:R:3 pbc="T T T"
Se      -0.08038798       0.29818917       5.93894317
Rb      -0.07520439       3.14030143      -0.26676726
Sn      -1.36253097       6.01033919       2.63681110
Sn       1.82809966       3.18108051       3.89869688
Se       2.08375119       1.42241684       6.29873315
Se       1.13201436       1.11184530       2.24410293
Rb      -1.97383888       6.18601039       6.68388377
Se       2.43180244       5.04994516       1.20145909
Se      -0.75367135       4.02106150       4.38423386
Sn       4.54724981       0.20697810       3.37263202
10
Lattice="42.654422760009766 0.0 129.4705352783203 39.305346285062114 7.247656404484256 101.8447494506836 0.0 0.0 129.2310791015625" Properties=species:S:1:pos:R:3 pbc="T T T"
Sc      57.02857738       2.72081908     193.93410264
Rb      41.21250927       2.82600940     178.86210108
Na      25.16291334       4.09603348      75.73183997
I       62.33187615       5.56327254     199.80389420
Se      11.41875223       1.41470114      72.70825056
Si      59.27341954       3.46152893     199.77942897
I       66.29034901       6.82679188     202.66724892
Rb      43.85859107       0.39915326     212.21429921
Rb      23.69644309       2.52664858     145.66333042
Rb      28.83738755       0.03746584     154.57597758
20
Lattice="6.172575950622559 0.0 1.8930118083953857 1.6249121354893379 6.88779221213322 2.8562803268432617 0.0 0.0 7.591739654541016" Properties=species:S:1:pos:R:3 pbc="T T T"
Ga       3.93140581       3.49596997       7.07056660
Br       6.54660786       5.59427681       8.54711389
O        5.21819320       4.70946000       7.49682558
Ga       6.01539119       0.50786268       8.36327570
O        2.34291763       0.60020761       2.40168567
O        2.52409312       5.99568496      10.22408545
O        3.35703845       3.15671783       3.25649927
O        4.39415747       1.79227410       7.97535977
F        3.49016796       4.70816966       5.75540493
O        1.06263395       1.94605070       5.45954635
Te       1.99749512       4.27391960       2.37788065
O        1.73819369       6.55570243       7.65703153
O        5.43377996       1.02793536       2.61905662
O        6.57745016       3.86672236       4.85299286
O        1.63381953       2.99728804       5.75756932
O        5.96449738       4.83488050       9.89743101
Li       3.87857742       6.36302655       6.93842701
Te       3.75974812       1.62000023       2.18696854
F        3.66184912       0.43058231       5.31282433
O        2.47852069       3.59917468       8.31458365
12
Lattice="7.258767604827881 0.0 2.404111385345459 3.6270677933060815 6.627613601703506 1.2043403387069702 0.0 0.0 8.075389862060547" Properties=species:S:1:pos:R:3 pbc="T T T"
Se       4.36271383       4.23016441       8.50085260
Pr       6.08161239       2.03158747       7.35113320
K        6.08139571       4.23922417       3.31448301
K        9.70887720       6.45214903       4.51802071
K        2.45223152       2.03249329       2.11225625
Se       7.97554118       2.03128428       9.69543664
Se       7.79827120       4.23048636       6.20628250
La       2.45222827       4.24166036       6.15135420
Se       7.99236085       6.46079283       9.70274849
La       6.07925069       6.44962909       7.35408055
Se       4.16780478       6.46110214       5.00430763
Se       4.18727449       2.03295470       5.01036321
11
Lattice="8.287304878234863 0.0 -1.3132535219192505 -4.42984079445182 6.9970770392443455 -1.329670786857605 0.0 0.0 9.16618824005127" Properties=species:S:1:pos:R:3 pbc="T T T"
Ba       5.14047160       0.66739649       3.21839842
Ba      -3.34569580       5.63540049       3.11115203
Ba       2.76094596       1.67807824       7.03159945
Ba       0.68068150       3.13670834       3.14564519
Ba       2.59143067       6.62587973       5.67743327
Pb       3.85479840       3.66045723       4.41670322
Pd      -0.15479891       1.30369044       5.72865755
Ba      -1.21287598       4.17026762       6.92056845
Pd      -0.36145593       5.97412439       4.39994951
I        1.82937415       4.77242806      -0.17419547
I        1.95915899       0.13878996       1.14744379
4
Lattice="3.042748212814331 0.0 114.83824157714844 -6.51286902989483 6.004296819868996 103.08565521240234 0.0 0.0 116.07189178466797" Properties=species:S:1:pos:R:3 pbc="T T T"
Te      -4.30247376       4.50400531     112.75604539
I       -0.64483901       2.23937919     140.84321448
Te      -3.13511150       3.90519276     205.68364588
Rb      -2.82670637       4.99392056     280.47227448
10
Lattice="8.543447494506836 0.0 9.528037071228027 6.03042343092528 6.107434470207858 5.688170433044434 0.0 0.0 9.833463668823242" Properties=species:S:1:pos:R:3 pbc="T T T"
Pr       6.94220001       4.64367270      14.67896644
Cl      12.47773081       5.91887127      18.61263262
Cl       5.19320580       2.86363857       6.06111267
Pr       8.20646715       1.63912647      11.74376658
C        9.84373275       5.37217646      11.67116065
Pr      10.73647730       4.04863342      19.80598186
C        0.52545176       0.35120581      10.32500482
Pr       3.46105955       1.08113549       7.25914364
N        7.81278165       3.42986330      13.03774900
N        2.58120043       2.24790283       8.91867752
10
Lattice="5.114837169647217 0.0 518.5801391601562 8.335637270168716 27.728169884482263 491.57342529296875 0.0 0.0 518.5735473632812" Properties=species:S:1:pos:R:3 pbc="T T T"
Rb       9.39664098      21.81809821    1030.19159671
Rb       8.77539237      21.53539913     994.16654735
Rb       5.86849910      12.14289959     533.31332704
Sb       5.92012846      15.98367518     617.09202758
Rb       6.92927928      11.44139849     685.51817525
Na       7.27643732      12.27885793     937.42581414
Rb       0.88914857       2.54664558     429.69646692
Dy       6.07915381      11.14984988     592.09124304
Rb       6.30404317      14.83861088     529.28777928
Rb       8.10715478      10.47264552    1047.91116310
4
Lattice="3.5633153915405273 0.0 0.8365434408187866 1.6821065261986803 3.1413682815176616 0.8360199332237244 0.0 0.0 7.928370952606201" Properties=species:S:1:pos:R:3 pbc="T T T"
Pb       3.18532376       2.36006667       8.10484240
Pd       0.99735584       1.04975679       1.47778146
Pb       4.05342812       2.88071840       4.44141399
F        1.88448798       1.58171090       5.63889686
9
Lattice="5.351558685302734 0.0 1.846106767654419 1.278796835935552 4.8614751026983765 2.3484115600585938 0.0 0.0 5.653970718383789" Properties=species:S:1:pos:R:3 pbc="T T T"
Pt       4.71310300       1.00862350       3.12502808
Sn       5.56736846       3.66887038       6.87740844
Pt       3.24261086       3.43274285       3.35469913
Rh       2.77336170       3.49969485       6.10257586
B        3.51357482       2.03653066       7.42889859
Sn       1.95929543       1.06099241       5.03220353
Rh       4.70928780       1.18502457       5.94405736
Pt       5.92628814       3.43233254       4.11808581
Pt       1.85993061       0.98496899       2.23189970
8
Lattice="3.835432529449463 0.0 0.006401821039617062 0.015553899644688353 6.4267962114939845 0.6516482830047607 0.0 0.0 6.819406986236572" Properties=species:S:1:pos:R:3 pbc="T T T"
Ba       3.18283751       0.41812404       5.87492293
Li       1.28057282       5.97133962       1.71090693
Na       1.26605454       3.52983627       5.00473715
O        3.18535363       2.27012860       4.02419926
Ba       3.18891130       3.23005539       1.37990358
Na       1.26864175       1.25444097       3.13364993
O        1.26781175       1.38133390       0.79365367
O        1.27698136       4.92910957       6.99288291
10
Lattice="36.477203369140625 0.0 501.92803955078125 13.5380950196386 22.69455230585448 373.9975891113281 0.0 0.0 512.8419189453125" Properties=species:S:1:pos:R:3 pbc="T T T"
Tb       2.04180925       1.96268793     118.29011836
Rb      11.61902231       1.13915916     357.84161705
Mo      39.40336524       6.10299273     653.38760775
O       24.73505483       1.57370548     776.27012096
Rb      28.14929354      10.60974449     497.25368721
K       31.00132294       2.83364459     737.70127469
Rb      17.26328885      18.72461645     835.96247420
Pd       6.74521655       3.57772265     248.25871654
Rb      27.18395900      12.49954180     769.18552867
Rb       8.09082487       5.38884351     229.10771233
12
Lattice="9.345934867858887 0.0 114.80021667480469 -6.998200653924414 5.561170239881302 120.928466796875 0.0 0.0 125.83238983154297" Properties=species:S:1:pos:R:3 pbc="T T T"
Te       8.38293378       0.68114393     129.83759908
Rb      -3.82223194       4.16235289     225.68711553
Hg      -3.45034973       2.86523169     107.51970296
Br       1.77443666       3.03136558     139.12577311
Rb      -3.06705646       5.41916682     246.28937238
Br       1.50914100       3.64698354     191.00135668
Rb       3.64862992       2.34377718     174.82655420
Rb       6.00471523       0.99473129     194.81429392
Rb       6.38654693       1.80593571     154.94917669
Rb       6.98877162       0.48077723     134.02823589
O        2.86285495       5.14443721     339.03007238
O       -1.31476109       1.22355738     105.83401320
4
Lattice="58.6506462097168 0.0 684.0335693359375 -134.98095725771418 77.4161486200165 762.3653564453125 0.0 0.0 701.4593505859375" Properties=species:S:1:pos:R:3 pbc="T T T"
Rb      41.45364690       3.10874906    1236.70197689
Rb       3.95846118       8.36910073     966.43619016
Br     -10.38383030      19.38840031     486.95188965
Hg       3.49123856       8.46133144     977.38259709
13
Lattice="5.064430236816406 0.0 1.9538685083389282 2.518947571763548 7.076933823475811 1.0608779191970825 0.0 0.0 7.587360858917236" Properties=species:S:1:pos:R:3 pbc="T T T"
Li       4.99052507       6.28805209       6.66820532
Li       1.19830054       2.74837119       1.36741150
Li       2.45931453       6.28754212       5.69211802
Cd       2.83941886       5.22859302       8.48442955
Cd       4.60229192       5.19553513       3.88225658
Cd       2.86021102       0.30101661       8.39222656
Cd       4.62207237       0.27156517       3.79261160
Li       3.73030138       2.74761403       2.34541684
Cd       1.70909375       1.32991178       3.81928842
Li       0.62279749       1.13323496       6.64919331
Li       1.77373356       4.36523466       3.67185376
La       3.72937786       2.74876285       6.14060623
Cd       5.75048352       4.16772380       8.45857944
12
Lattice="7.162392616271973 0.0 0.0017730789259076118 -0.013925394569642714 7.865735125123695 0.006418947596102953 0.0 0.0 9.11093807220459" Properties=species:S:1:pos:R:3 pbc="T T T"
Ca       1.59466656       4.98748980       0.34834000
I        3.29497976       3.68371774       2.66253793
Ca       1.59989659       1.05066598       2.66018672
I        6.94859159       6.28275768       7.22166920
I        6.93863518       2.36806846       4.92456154
I        7.05365284       6.28471787       2.66670974
I        3.40786798       7.60302192       0.40248752
Yb       5.18125709       1.05269345       7.21517848
I        3.39589725       3.68648808       7.21743115
I        6.94575808       2.36958256       0.39641812
Ca       1.59268521       4.98221026       4.98013200
I        3.40160251       7.60091545       4.93065266
6
Lattice="3.9020516872406006 0.0 0.0023340065963566303 0.0012366434584833198 3.902215761690494 0.00016868991951923817 0.0 0.0 5.755555152893066" Properties=species:S:1:pos:R:3 pbc="T T T"
Ni       2.87068729       1.33984890       1.13905887
Ni       0.91850899       3.29049893       1.13675856
Sm       0.91839512       1.33935906       4.01257454
Pt       2.86941559       3.29145487       5.31466616
H        0.91723097       1.33926696       1.14200819
Pt       2.87011950       3.29036844       2.72375545
14
Lattice="6.292392730712891 0.0 -2.0093894004821777 -1.204492151776727 7.238618338446299 -2.654924154281616 0.0 0.0 9.448502540588379" Properties=species:S:1:pos:R:3 pbc="T T T"
Cu       4.17929233       2.72526416       6.31440340
Cl       0.29431547       5.85384710       1.29261374
Cl       0.41874388       5.32334048       5.60578246
Sb       1.48011929       5.27262205      -1.57715134
Cl       3.67408867       5.17653308      -2.91038986
Cs       0.64578314       2.02736929       3.87157872
Cl      -0.25779267       2.18100555       0.28997069
Cl       3.39491492       3.99558606       0.42775110
Cl       2.27471452       1.64004445       7.01744604
Cu       1.85907972       2.56532844      -0.47797498
Cl       4.30290934       2.33863601       4.13422415
Cs       3.33415882       6.35917097       3.10511413
Cl       2.98406632       0.43146439       1.13689490
Cu       5.13244254       4.22743761      -1.11985193
8
Lattice="3.4820268154144287 0.0 -0.6536685228347778 -0.22648688662652525 4.671335822380525 -1.2067588567733765 0.0 0.0 9.622411727905273" Properties=species:S:1:pos:R:3 pbc="T T T"
Zn       0.50811922       2.01457179       3.98434226
Ho       0.99806275       0.21982127       6.60032604
Ho       1.28914400       3.13272698       8.15524021
Zn       2.07366499       4.25077706       2.71891188
Zn       2.60005687       2.51173243       5.50424213
Ho       1.80980269       1.37822206       1.31698540
Zn      -0.01512894       3.75003006       1.18538027
Co       3.14574939       0.80148818       8.44277674
8
Lattice="198.31369018554688 0.0 1572.5072021484375 74.43173087461673 24.20195875063678 1178.97265625 0.0 0.0 1290.3431396484375" Properties=species:S:1:pos:R:3 pbc="T T T"
Os     165.00159405      22.58961146    2109.08888270
Rb      88.34605583      18.39007535    2107.44266847
Pd     181.10161578      16.41331129    2787.52612174
Ba     138.49605908      12.70006715    1498.52875441
Rb     194.03159499      13.34888249    2920.69862903
Ti     216.99603146      14.69587863    2258.06933001
Rb     190.29886731      23.99766350    3030.76342725
Sc     178.35462727      23.56374038    2990.13479898
