3
Lattice="2.9865477085113525 0.0 0.00976030807942152 0.008058467930624496 3.7000036699411845 -2.137148380279541 0.0 0.0 4.273225784301758" Properties=species:S:1:pos:R:3 pbc="T T T"
Ti       2.77427374       0.01738906       3.84449532
Ge       1.28167168       1.24983520       1.70419389
Pd       1.28723638       2.48403166      -0.43342162
14
Lattice="5.982064247131348 0.0 1.2076488733291626 2.5418982687736498 7.978976119696531 0.23378601670265198 0.0 0.0 9.52129077911377" Properties=species:S:1:pos:R:3 pbc="T T T"
Tb       6.51501440       7.06604357       1.11261013
Sm       2.93762872       1.97952439       2.47285712
Tb       1.29011402       1.58801802       5.65171678
Dy       4.96920765       6.60432329       4.17609596
Tb       5.60969904       0.29396589       3.92748190
Sm       0.91308037       0.72432876       9.05074073
Tb       3.28109572       6.04710097       7.20932153
Dy       1.72666408       4.93216743       4.24950527
Tb       6.12198552       4.44750545       8.51028344
Dy       6.21864871       3.73739547       2.41295165
Dy       3.16916546       2.85595848       8.59173527
Tb       3.39418566       5.49216051       1.20587622
Dy       4.51812108       3.26750750       5.47887466
Dy       6.47368810       7.83090874       7.24467313
11
Lattice="3.9943723678588867 0.0 -1.147056221961975 -0.5791836953816443 5.634729809313242 -2.043438673019409 0.0 0.0 7.550591945648193" Properties=species:S:1:pos:R:3 pbc="T T T"
Pd      -0.47527580       5.44277262      -1.10664068
Pd       3.31593094       0.43913945       4.60190013
As       2.30503633       1.16402608       1.07005528
Si       3.41682962       2.94578988       4.95325089
Pd       2.02831046       4.63194957       0.09542897
As       0.53550447       4.72044328       2.42846442
Pd       2.72672489       3.14781571       2.53748781
Pd       1.19168986       4.05023611       4.71695531
Pd       0.11524720       2.73873865       0.96465159
Pd       1.64974136       1.83929208       6.33335218
Pd       0.81394907       1.25430151       3.40496575
17
Lattice="6.616775989532471 0.0 0.3524435758590698 1.9643199575010462 8.166791908015337 1.5717071294784546 0.0 0.0 9.0615873336792" Properties=species:S:1:pos:R:3 pbc="T T T"
Sm       2.03255743       3.50864998       5.17795977
Ce       4.84718653       0.27191752       6.86901681
In       3.45830992       0.73300918       3.86237997
Ce       6.56570286       3.10173071       8.36511463
Sm       2.29008844       0.53212113       0.76901928
In       5.37330831       3.02474008       5.17632436
Ce       4.92661852       5.92137022       6.52950916
Sm       2.25640541       5.72037246       9.23715258
In       3.38247852       2.97632628       8.00783380
Ce       5.66237914       0.68661333       9.44686848
Sm       4.10257569       3.34062005       2.12024742
In       7.36759051       3.21939145       2.42715565
Ce       6.14062079       5.98457357       4.11440329
Sm       0.13013646       0.23469927       3.68359473
In       2.88971214       6.01735325       3.40616640
In       1.52240690       0.45011958       6.60918762
In       5.56152869       5.95365971       9.91662192
4
Lattice="3.6383912563323975 0.0 0.001823242288082838 0.0019127946678739046 3.6378810145374283 0.0025207609869539738 0.0 0.0 7.187048435211182" Properties=species:S:1:pos:R:3 pbc="T T T"
Pr       2.69991443       0.48674886       3.83834480
Lu       2.70092025       0.48551003       0.24540920
Al       0.88248925       2.30485515       1.83470560
Al       0.88267974       2.30531592       5.84020469
20
Lattice="6.516568183898926 0.0 -1.1153523921966553 -2.9942333541038133 5.314531541034376 -0.4103412926197052 0.0 0.0 8.901286125183105" Properties=species:S:1:pos:R:3 pbc="T T T"
Ca       3.49718333       1.21368549       7.03183904
O        5.05480358       2.32038798       5.85671818
Tb       2.38837849       2.52167727       3.56403781
Ca       0.71455069       5.04060592       1.47899941
Ca      -0.09306772       0.75076849       4.69944564
O        1.63310027       1.95839471       5.61750479
O       -0.66503863       3.83287082       0.08859272
W       -1.91316403       4.14872421       7.36327824
Ca       0.10504043       0.65454537       1.45045193
Tb       0.87316086       2.89189883       7.40211778
O        3.39982689       4.36424807       4.82714698
O        4.36997366       1.74072362       2.89256370
O       -0.26102861       4.51587293       6.37118535
O        1.73355072       0.23921978       2.98925724
O        0.34657546       2.72874224       2.66542512
O        3.18688879       3.67133135       7.58510188
Tb       4.71481386       3.15920489       1.12429965
O        4.43747127       1.13618863       0.14784880
O        1.07116998       0.75516440       8.26681083
O        2.81325914       4.18004682       1.88762412
12
Lattice="4.3408918380737305 0.0 -0.0048422012478113174 -2.173885498765288 6.6108434878703095 -3.0939438343048096 0.0 0.0 12.106465339660645" Properties=species:S:1:pos:R:3 pbc="T T T"
Te       3.02560591       2.74757630       6.84231524
Er       0.85836875       0.55105608       6.68409538
Te       3.02942751       3.05007810       0.55763657
Er       0.85613280       5.24418967       0.70899740
Er       3.02596653       2.89227713       3.70104797
Er       0.85943351       0.95379921       0.67281908
Te       0.85292462       5.03501278       3.69413862
Te       0.85766444       0.75687632       3.69791165
Ag       0.86100681       2.89786575       9.75793500
Te       0.85684266       0.31015185       9.75739033
Er       0.85289842       4.84269357       6.71186022
Te       0.85834165       5.48262026      -2.37047881
8
Lattice="4.702295780181885 0.0 1.425519585609436 2.1372550936449377 4.1870054521107525 1.4271986484527588 0.0 0.0 8.524256706237793" Properties=species:S:1:pos:R:3 pbc="T T T"
Dy       5.72356777       2.71243684       9.01958423
Dy       2.26912066       0.59853473       3.44595896
Dy       4.01463770       1.66737652       6.17539529
Cu       1.86095873       3.22768718       4.80960447
Dy       2.70192411       3.74225971       2.01947319
Ir       4.85126591       2.17884097       3.39561992
Ag       3.14389705       1.13371103       9.07370883
Ir       1.43499345       0.08820702       6.22335796
7
Lattice="4.471711158752441 0.0 -1.4887255430221558 -2.46999823902118 4.007275273002851 -0.02800353802740574 0.0 0.0 7.409742832183838" Properties=species:S:1:pos:R:3 pbc="T T T"
Li      -1.39431073       3.12232302       1.11283400
Mg       2.11813616       2.52728625       4.20845123
Ag       0.27388637       1.38605585       6.13733347
Li      -0.52488820       3.65890334       3.71484684
Mg       2.90094224       0.24361265      -0.83159004
Hg       3.85755012       0.83234469       2.00204511
Hg       1.16263327       1.93984725       1.37514966
12
Lattice="6.182433605194092 0.0 0.01936529576778412 0.027352224871814344 8.58900578697143 -1.462365984916687 0.0 0.0 8.725913047790527" Properties=species:S:1:pos:R:3 pbc="T T T"
Tl       2.31723042       7.83465229      -0.81135563
In       5.40732144       8.23183891       2.75427655
Cl       5.41177320       8.36036619      -0.09719507
In       2.31226812       4.79485762       2.68621714
Cl       2.30256574       5.27735981       5.61693370
Cl       5.39181110       2.92986224       6.16892765
Cl       2.30120162       2.19988345      -0.20652886
Cl       2.31145369       7.59572721       2.26826024
In       5.40139353       5.74321151       5.76284842
Cl       5.39331280       5.27345469       2.82809213
Tl       5.38902618       2.72858481       0.50779698
In       2.29105717       2.31265871       5.66654155
4
Lattice="3.359438896179199 0.0 -0.007004488259553909 -1.704072060269738 3.7766735941827907 -0.9276688694953918 0.0 0.0 5.137567043304443" Properties=species:S:1:pos:R:3 pbc="T T T"
Ge       2.82121272       0.68553239       3.65508590
Pt       1.12992652       2.55056620       4.44671434
Ge       1.14538118       0.63804123       1.02598483
Pd      -0.54667629       2.55014997       1.88141681
5
Lattice="3.847766399383545 0.0 -1.0774662494659424 -0.3007002901407499 3.83493657842869 -1.0759053230285645 0.0 0.0 7.389108180999756" Properties=species:S:1:pos:R:3 pbc="T T T"
Rb      -0.05843849       1.32030581       0.26660073
Se       2.25723566       3.82303716       1.12745364
Ni       2.75127014       2.27901036       2.88224214
Ni       0.97814795       0.36038545       3.95868887
Se       1.16990347       2.64868438       4.63622170
8
Lattice="5.015929698944092 0.0 -1.2098910808563232 -0.29169763047642466 5.006677987087526 -1.2169054746627808 0.0 0.0 10.929780006408691" Properties=species:S:1:pos:R:3 pbc="T T T"
Nd       4.34792558       4.57793228       5.01291805
Tb       0.06364343       2.69464373       9.23599527
Sm       0.79654170       0.81111787       1.32367538
Nd       3.15964567       3.31670107       0.11921261
Sm       2.72272316       0.19575415       9.25163418
Nd       3.90002175       1.44355705       3.17194566
Sm       1.24675200       3.95034043       3.17646794
Sm       1.98725695       2.07649318       6.23497188
6
Lattice="4.336695194244385 0.0 0.05940387770533562 0.014976535728960247 4.843927119308641 0.03544854745268822 0.0 0.0 6.9323906898498535" Properties=species:S:1:pos:R:3 pbc="T T T"
Ce       0.53045686       4.34372453       4.16753978
Ce       2.69674361       1.91841571       2.75265441
Tb       0.53612185       4.34224571       0.60654423
Fe       0.53921582       1.91835883       2.03760239
Tb       2.69818501       1.91902448       6.31462023
Fe       2.69813606       4.34199596       4.88001263
16
Lattice="4.184878826141357 0.0 0.004835428670048714 0.019257390647288184 7.657966719346297 -0.010281461291015148 0.0 0.0 14.191572189331055" Properties=species:S:1:pos:R:3 pbc="T T T"
Sr       4.07853342       7.00342234       9.83871708
Se       1.98748361       7.28864267      12.06926736
Er       4.07630771       6.19481683      13.60099270
Sr       1.98198582       4.47165592       4.98621374
Se       1.98398618       5.43223156       7.97792969
Li       4.07007540       3.58194625       1.64856811
Sr       1.96833801       0.07185256       2.58515391
Er       1.97207805       0.51443545       6.32775424
Se       4.07084078       4.13637622      11.43218241
Er       4.07164833       3.43255392       8.58495306
Se       4.06252781       1.20714159       0.75230943
Sr       1.97402000       2.52142988      12.94645754
Se       4.07803988       6.74724869       4.71911332
Se       4.06809280       2.46779102       5.79910365
Se       1.97923049       4.96676080       1.14498217
Se       1.97320798       1.54250915       8.95980127
6
Lattice="3.5490522384643555 0.0 -0.0009432005463168025 -0.00250789460590583 4.135523035653573 -1.342254877090454 0.0 0.0 7.036308288574219" Properties=species:S:1:pos:R:3 pbc="T T T"
Ga       3.17383427       3.17811605       4.99493214
Ta       1.40007363       2.47222363       2.83154779
Ta       1.40053263       1.05761491       5.49595783
Nb       1.39870407       3.83379199      -0.02518077
Nb       3.17442017       1.76510587       0.64537277
Ga       3.17543126       0.35176516       3.33163898
15
Lattice="5.636390686035156 0.0 0.006441359408199787 -2.8303647926583153 4.872254762555284 -0.0077913966961205006 0.0 0.0 9.637568473815918" Properties=species:S:1:pos:R:3 pbc="T T T"
P       -0.48974488       2.92311019       8.74895643
O       -0.48516951       1.45621070       9.26625712
O       -1.75807617       3.65352749       9.25930874
O        3.56488418       2.01025999       4.80051645
K        2.33749796       1.29805555       0.02538429
O        2.33697722       1.29718519       2.65940002
K        2.33065754       4.54675098       1.76891226
P       -0.47100101       2.90978594       4.33761113
P        2.33376621       1.29302929       4.17783598
O        1.09445772       2.00812461       4.80232234
O       -0.47872572       2.91638432       2.86421775
O       -0.48224360       2.91847091       7.21609754
O        0.78535434       3.65784703       9.26689769
K        2.32981544       4.54239078       7.08416472
O       -0.50209647       4.75222872       4.79376690
10
Lattice="4.64999532699585 0.0 -2.664031982421875 -3.214625531563371 4.32857517553855 -0.21776194870471954 0.0 0.0 5.399086952209473" Properties=species:S:1:pos:R:3 pbc="T T T"
Co       1.16629825       2.31749220      -1.31846496
Co      -1.16706876       2.31787895       0.01883751
Co       0.44047335       0.12585301       2.80775967
Co       2.76084495       0.12540051       1.48043814
Pd       2.72757104       0.18599982      -1.28103417
Pd       0.39664952       0.19947944       0.03445853
N        0.49607675       3.18715334       0.22227889
Co       1.25508078       2.17934001       1.53737464
Co      -1.08273810       2.18566006       2.86635318
N       -1.82566826       3.18871400       1.55968539
6
Lattice="3.278437614440918 0.0 -0.0001990707969525829 0.005003964692897177 3.2787058315134994 0.0003809379995800555 0.0 0.0 9.613631248474121" Properties=species:S:1:pos:R:3 pbc="T T T"
Cd       1.61983323       2.13481220       0.01163783
Li       3.25834422       0.49553101       4.48820196
Li       3.25528485       0.49678843       1.69381934
Li       3.25645404       0.49554454       7.90036605
Cd       1.61873525       2.13598847       6.18191043
Au       1.61888675       2.13544968       3.08919624
12
Lattice="5.434861183166504 0.0 -1.6540981531143188 -1.4123315848348736 5.246591414289354 -1.6702743768692017 0.0 0.0 8.225311279296875" Properties=species:S:1:pos:R:3 pbc="T T T"
Cu       4.96722909       0.01301358       1.15434074
Cu       1.45729749       2.70378514       1.13920641
Sm       2.55347974       0.50382132       3.04253433
Sm       5.24876997       0.48177745       6.34286668
Sm       1.82910285       3.10489326       6.33265897
Cu       2.11364459       3.56629653       3.29670647
Sm       4.52646757       3.07499680       1.40690714
Cu       0.18696839       0.87961560       4.96792989
Cu      -0.53949809       3.55280355       0.04538760
Cu       2.18430059       0.03347208       6.05720020
Rh       4.18905624       2.64688489       4.35875516
Rh       2.88931234       0.93725582       0.09285580
4
Lattice="3.665483236312866 0.0 2.116351366043091 1.2220893153721166 3.4543852883742376 2.1170003414154053 0.0 0.0 4.2314677238464355" Properties=species:S:1:pos:R:3 pbc="T T T"
Cu       3.08729665       0.58751003       4.83130695
V        1.86568601       2.31499268       2.71666007
Rh       0.64336437       1.45209549       4.83140233
Rh       3.08815522       3.17826616       4.83282406
8
Lattice="4.092586040496826 0.0 0.005913837812840939 0.034630900871986454 7.282027868179796 -3.305156946182251 0.0 0.0 10.193199157714844" Properties=species:S:1:pos:R:3 pbc="T T T"
Zn       3.58708690       1.76114469       6.69887732
Hg       1.56994127       5.75608874       0.00631925
Hg       1.55665164       5.54261787       5.59755513
Br       3.59249835       3.24281189       4.77224044
Br       3.58503118       1.07353611       1.23256501
Zn       1.56679165       6.93605027      -2.50650394
Br       3.61443204       6.69096590       3.05200933
I        1.54399428       2.52189954       8.25344803
6
Lattice="4.437442779541016 0.0 0.00946599617600441 -2.208120527665046 3.846829593725223 -0.0027666452806442976 0.0 0.0 6.694760799407959" Properties=species:S:1:pos:R:3 pbc="T T T"
Lu       2.50097539       1.30193339       6.06798908
Ga       0.28639947       2.58361691       1.04736944
Lu       2.50027456       1.30086009       2.72254697
Ga       0.27785323       0.01983550       4.38923309
Pt       0.28546046       2.58325899       4.38768786
Pt       0.27882647       0.01979074       1.04145531
6
Lattice="2.7281415462493896 0.0 0.8203559517860413 -0.2122074317788329 5.0452928648802375 0.767542839050293 0.0 0.0 4.929942607879639" Properties=species:S:1:pos:R:3 pbc="T T T"
Mo       1.13714256       4.99467278       4.07947703
Mo       0.66379093       1.54636822       0.74310585
Os      -0.05123659       2.78403447       3.11569758
Os       1.92222040       3.84954137       1.52686751
H        1.19144087       1.70057380       3.92487519
H        1.90454365       0.40419321       1.57784526
10
Lattice="6.57011079788208 0.0 -0.41521018743515015 -3.2573039985923056 6.611055412089742 0.10977669805288315 0.0 0.0 8.34515380859375" Properties=species:S:1:pos:R:3 pbc="T T T"
Cl       3.64217298       1.40986300       1.66144120
Mn       0.08854692       4.13315128       6.74057111
Ag       3.47619500       3.70515588       0.75163597
Br       3.23390720       5.38046725       2.93223455
Br       4.97431055       2.57913311       5.94217114
Br      -0.24892014       3.76004462       0.72182600
Br       1.63784498       0.25139966       2.47446039
Br       2.25225139       5.10646525       7.25372601
Br       0.90124288       3.61788886       4.62050877
Br      -0.92785776       6.13572007       6.43827652
12
Lattice="4.602108478546143 0.0 0.00029714766424149275 -2.29122917962684 4.003457295239751 0.007726746145635843 0.0 0.0 17.612567901611328" Properties=species:S:1:pos:R:3 pbc="T T T"
Er       0.50144043       0.97347129      15.46433869
Pt       2.79775777       2.30693864       5.07069772
Er       0.49458340       0.97596754       7.57150952
Bi       2.80311123       2.30635807      13.90717549
Bi       0.50309547       3.64633069       5.84999522
Bi       0.50277820       0.97484463      11.57453883
Bi       2.80170320       2.30696871       1.57112509
Bi       0.50695693       3.63796308      17.34107682
Bi       2.80125245       2.30962317       9.31999888
Pt       0.50361146       3.64656072       9.88352207
Bi       0.49356481       0.97009415       3.61411576
Pt       0.50698814       3.64386236      13.09039708
20
Lattice="6.307020664215088 0.0 -2.218681573867798 -3.1414477815866624 5.4674634083994595 -2.2302207946777344 0.0 0.0 6.691967010498047" Properties=species:S:1:pos:R:3 pbc="T T T"
Zn      -0.31030627       0.78545926       5.97046668
O        2.99429694       2.49232970       3.70825039
Pd       1.27446920       3.52131819       0.40004693
O       -0.44251228       4.55466036       3.78913158
Zn       1.27546159       3.52495671       3.74607275
Pd      -0.30613957       0.78867617       2.62582891
Pd       2.84553148       0.78950799       4.86201231
O        0.74506234       2.49169243       2.10359044
Rb      -1.87820225       3.52280260       1.51111780
O        0.85179059       0.84551529       4.33759215
Zn       2.84443497       0.78796248       1.51584262
O        2.81948938       4.24586362       1.57382893
O        0.32430218       5.27972427       0.92139140
O        1.80680824       4.55330467      -1.30407213
O       -2.04680223       5.27684800      -0.75846331
O        4.59750185       1.76382801       1.56274928
O        4.84089916       0.73286595      -1.30489653
Pd      -1.87828068       3.51977023       4.85682861
O       -0.27202108       2.79160160      -0.76919919
O        2.22412860       1.76503151      -0.12203672
4
Lattice="3.6380186080932617 0.0 2.0967071056365967 1.2126327999452537 3.4303467810323016 2.0967588424682617 0.0 0.0 4.200482368469238" Properties=species:S:1:pos:R:3 pbc="T T T"
Si       3.16415987       0.75892399       5.06986848
Ru       3.16252783       3.33244422       5.06781553
Ga       1.95130286       2.47497775       2.97037013
Ru       0.73862144       1.61694287       5.07239378
8
Lattice="3.5914556980133057 0.0 -0.6635450720787048 -0.1912882921168876 4.46806842160825 -1.053078055381775 0.0 0.0 9.90046215057373" Properties=species:S:1:pos:R:3 pbc="T T T"
Dy       1.53101664       2.63257322       4.20768515
Dy       0.61795361       1.42850980       9.20789037
Dy       0.98544100       4.27213961       1.26582240
Pt       2.87647416       2.02986952       1.43387083
Pt       0.15279463       3.17832489       6.73566170
Ga       1.97698427       0.85959482       6.58707267
Pt       2.37539914       3.73769365      -1.23528310
Pt       3.41774538       0.38842932       4.35299306
10
Lattice="4.9545698165893555 0.0 0.9085765480995178 2.7351023140918183 4.184739444088855 1.6071701049804688 0.0 0.0 5.10372257232666" Properties=species:S:1:pos:R:3 pbc="T T T"
Li       2.86443845       3.20972966       3.99983323
O        3.33939110       1.88498871       2.63360053
O        6.48627625       3.95477355       6.37200344
O        4.17067521       2.62550869       5.30292134
Mg       2.95139914       1.13188125       0.84152334
Li       3.17278074       3.61487317       1.61651698
Li       4.72040398       1.40433553       3.89385131
Li       5.28196015       2.33248741       1.72366502
O        1.11499429       0.60321056       1.57212507
Pd       2.39376626       0.17670170       3.22099731
8
Lattice="5.239740371704102 0.0 -2.689404249191284 -1.3756862301938932 5.0868946630321945 -2.6402523517608643 0.0 0.0 6.502618789672852" Properties=species:S:1:pos:R:3 pbc="T T T"
K        3.82265081       3.17439031       1.46242083
K        1.91441225       0.64920646       4.09920745
K        2.16449659       4.44974422      -1.81763195
Re       0.25691839       1.89003523       0.84625408
N       -0.58005486       3.29232761       1.58613231
O        4.39232623       0.43143013      -1.55413083
O        1.87900515       1.41787866       1.58954673
O        0.61927117       2.36521972      -0.91129608
4
Lattice="4.4038777351379395 0.0 2.538518190383911 1.4677270896456343 4.15434126814084 2.5385379791259766 0.0 0.0 5.0842695236206055" Properties=species:S:1:pos:R:3 pbc="T T T"
In       4.52854660       2.23940205       4.45434968
Y        1.59291554       3.27877826       4.45641819
Sc       3.06181968       1.20096802       6.99865569
Au       1.59195021       0.16400358       4.45752035
10
Lattice="5.574746608734131 0.0 -2.4770805835723877 -1.6148306858281107 6.2532088756368385 -3.6641385555267334 0.0 0.0 7.441596984863281" Properties=species:S:1:pos:R:3 pbc="T T T"
Ca      -1.42059693       5.91831671      -2.76402637
Ca       1.85723953       4.03825815      -2.89152982
In       1.58515152       2.71869581       0.22919919
Ca       4.09855040       1.41513528       2.10162396
In       4.36513751       2.72188126      -1.01831945
Ca       0.17371913       5.78275648       0.77599213
P       -0.72904507       3.62257066      -1.19519259
P        3.02585818       5.14945550      -0.31581216
P        2.91900045       0.29651847      -0.48685746
P        1.09956702       1.83224936       2.87475464
6
Lattice="5.150066375732422 0.0 2.754625082015991 1.776175949377943 6.305395225517401 2.8646857738494873 0.0 0.0 6.2983598709106445" Properties=species:S:1:pos:R:3 pbc="T T T"
Na       3.42690704       1.26190702       4.50535716
Na       5.02706836       1.47503693       7.74792763
Eu       4.15366513       4.81974643       9.39912104
Eu       2.52811977       4.43625390       6.20759597
Sn       5.91790010       4.62701887       6.03141627
Na       1.47901157       1.68912719       1.93764669
12
Lattice="4.548638820648193 0.0 0.0027077479753643274 0.0015696939376798483 10.97747505409376 0.3269415497779846 0.0 0.0 10.903799057006836" Properties=species:S:1:pos:R:3 pbc="T T T"
I        3.29916950       2.61619987       0.73542649
Ca       1.02636683      10.29011285       6.05776004
Ca       3.29950466       7.54821214       3.24376518
I        3.29946540       8.10411460       6.34491958
Ca       3.29979967       2.05933623       8.53401608
Ca       1.02764261       4.80316518       0.43267561
I        3.29925627       1.49568495       5.43216911
I        3.29990434       6.99109789      11.04508909
I        1.02633521       9.73291943       2.95309335
I        1.02577328       4.24316511       8.23091000
I        1.02577853      10.84919133       9.15897945
I        1.02449913       5.36216744       3.54119085
5
Lattice="3.993809461593628 0.0 -1.4651998281478882 -0.5689346502047528 4.065254392552172 -1.5513098239898682 0.0 0.0 6.1784844398498535" Properties=species:S:1:pos:R:3 pbc="T T T"
Li       0.54414165       2.26258359       3.18607444
Al       2.80629802       0.20434486       3.17300432
Pr       3.37463279       3.24749988      -1.45455937
Zn       2.07987959       1.71187628       1.19101638
Ga       1.28765138       0.77483213       5.21471994
18
Lattice="6.5878119468688965 0.0 -3.9603772163391113 -2.3615587415032597 6.4179777271565275 -3.9571566581726074 0.0 0.0 7.911814212799072" Properties=species:S:1:pos:R:3 pbc="T T T"
Sc       3.37010887       2.32273845      -1.72906312
Sc       2.18606449       5.53248073      -3.70911857
F        0.25836579       5.08025534      -3.70926371
F        1.55560530       1.53319792       2.02022887
F        4.28403470       0.54283182      -1.22539131
F        5.18018569       3.12154241      -5.48301119
K        0.40455784       0.01036771       0.24828456
K       -0.24875756       4.63480324       0.25174946
F        3.33812876       1.71800916       4.20221179
F        2.46032862       4.10455358      -2.23596055
F        2.46475519       4.10493115       2.73060038
K        0.07536854       2.32358081       4.20470447
F        4.12197117       5.98357303      -3.70719078
F        5.17502233       3.11950901      -1.94448484
Sc       3.36681696       2.32427569       2.22657308
F        3.39543547       2.92920773       0.24881631
F        4.27740618       0.54427768       1.72110901
F        1.56693604       1.52131953      -1.51850464
6
Lattice="2.841973066329956 0.0 -0.0009812589269131422 0.0011648003571311605 2.8399252887001833 0.0009494960540905595 0.0 0.0 11.9356107711792" Properties=species:S:1:pos:R:3 pbc="T T T"
Nb       1.88969622       1.43324260       0.78738142
Nb       0.46923478       0.01645018       7.32363333
Au       0.46673022       0.01280971       2.94260098
Cu       1.89081523       1.43652717       9.21637097
Cu       0.46618108       0.01506229      10.78801399
Au       1.89349839       1.43101785       5.15929241
4
Lattice="3.305500030517578 0.0 0.9945864677429199 1.512408360355834 2.9423562832463226 0.9986975789070129 0.0 0.0 5.984463691711426" Properties=species:S:1:pos:R:3 pbc="T T T"
Ho       1.58558205       1.66244322       5.51144820
N        2.78978964       2.39811770       1.52114609
Ho       2.48218864       0.19176188       2.51540424
N        3.68610542       0.92667175       4.51189740
4
Lattice="4.569164752960205 0.0 2.6284215450286865 1.5223018639257901 4.305821948875099 2.6309654712677 0.0 0.0 5.276087284088135" Properties=species:S:1:pos:R:3 pbc="T T T"
Li       0.39067628       0.42407748       0.70712536
Y        4.95932072       3.65363422       8.60867118
Dy       1.91369252       1.50078137       3.34072809
Tl       3.43618475       2.57699086       5.97422989
4
Lattice="3.6097567081451416 0.0 0.5438631772994995 1.7614813101278697 3.1553930346574104 0.541838526725769 0.0 0.0 12.190780639648438" Properties=species:S:1:pos:R:3 pbc="T T T"
Nd       3.98394593       2.03525779      11.00662436
Nd       1.28836959       0.44016842       4.48137537
Pr       1.71471020       2.81240264       1.64942932
Y        2.63539181       1.23629903       7.74367048
6
Lattice="4.584253787994385 0.0 0.010324024595320225 2.298946005528477 3.963445004315272 0.011025032959878445 0.0 0.0 12.298356056213379" Properties=species:S:1:pos:R:3 pbc="T T T"
Ba       4.16685712       2.67051393       1.72556921
Ba       1.87203657       1.34696902      10.25932879
S        4.15849647       0.02518914       3.44720677
I        4.16408755       2.66949408       7.97161813
S        4.16099608       0.02642005      11.94155490
Tl       1.86771981       1.34720125       5.18457152
8
Lattice="3.5614967346191406 0.0 -0.5340695381164551 -0.23291462691078782 6.03164411233143 -1.5775060653686523 0.0 0.0 12.146642684936523" Properties=species:S:1:pos:R:3 pbc="T T T"
Tb       1.21314626       2.91243140      10.24419522
Tb       2.21084457       0.41847839       4.77522805
Tb       0.88088705       0.14913963       8.05341679
Tb       2.88130740       5.91771305       9.21781351
Tb       0.31775028       3.41968103       4.28495260
Ce       2.54724569       3.16766603       6.99888527
Nd       3.37776284       4.67619722       0.39598803
Nd       1.71335900       1.66227070       1.45277310
4
Lattice="4.475198268890381 0.0 -2.0603673458099365 -0.9578063928656849 4.371851780280588 -2.0644054412841797 0.0 0.0 5.889195919036865" Properties=species:S:1:pos:R:3 pbc="T T T"
Er       3.73189157       1.25829119      -1.21653335
Mg       1.01515839       3.44520077      -1.21766411
Er       2.37373564       2.35307795       1.72878013
Er       0.61496719       0.16645938       3.79174253
10
Lattice="4.257511138916016 0.0 -1.4749641418457031 -0.6346473218046077 5.266075368843061 -1.8151836395263672 0.0 0.0 6.932196617126465" Properties=species:S:1:pos:R:3 pbc="T T T"
Pt       0.24789387       5.21292595       1.16088389
Ga       0.09221974       0.64421145       0.66982173
P        2.98962482       3.24335657       2.16874990
Pt       2.15119386       3.64242402      -0.24375500
Pt       2.62434612       1.15700514       1.10926008
Pt       3.53800519       0.28624610       3.77690319
Pt       0.63839841       2.77407798       2.25867297
Pt       1.28720334       4.72234322       4.18163746
Pt       3.74187272       3.11756374       4.38912021
Ga       1.50649118       1.83666821       4.81161351
12
Lattice="4.185956954956055 0.0 -0.9545119404792786 -0.41694499185517514 8.360694216343802 -1.8995020389556885 0.0 0.0 9.612761497497559" Properties=species:S:1:pos:R:3 pbc="T T T"
Pr       3.86042792       3.29007620       7.48508826
As       0.33622106       3.98261702       1.71805637
Pr       1.20972772       0.50765640       5.56028585
Pr       2.35003814       6.04017222       0.87005078
Se       0.12637576       8.16100492       0.75707902
As       2.99547233       6.78313670       3.67700127
Pr       2.55375178       1.97294183       1.79700949
Pr       3.63853901       7.45033413       6.47928805
Pr       0.99748050       4.67352454       4.59678989
Se       1.88159420       1.19911428       8.47803829
Se       1.67306820       5.39731702       7.52736407
As       3.20469968       2.59284130       4.63622957
6
Lattice="4.504338264465332 0.0 2.0831429958343506 1.8196067280596244 4.494928792867783 1.9005086421966553 0.0 0.0 5.83463191986084" Properties=species:S:1:pos:R:3 pbc="T T T"
Mg       2.85530832       1.38813949       3.61967917
Cd       5.05632296       2.93408627       4.84572127
Zn       2.40202813       2.00168428       6.50890145
Zn       4.80409654       0.78292268       7.25569828
Mg       4.46816716       3.63567435       7.81696747
Cd       2.54450546       4.33300252       4.32903880
20
Lattice="6.107265472412109 0.0 -0.018353553488850594 -0.04649768991922351 10.871156436027947 -2.9639804363250732 0.0 0.0 11.30129623413086" Properties=species:S:1:pos:R:3 pbc="T T T"
K        1.25892395       6.99541908       0.11379302
Br       2.20308703       7.35515207       6.82427919
K        1.28900021       3.06886909       8.37989422
Br       2.31004438      10.73019349       5.46835307
Be       1.59292854       8.64433786       5.16376335
K        1.13423596       2.24642813       2.23987467
K        4.14745593      10.51322480       2.70999511
K        4.30565785       9.68962267       7.86413709
K        4.33107149       5.75587179       4.84401612
Br       5.40344720       2.01758099      -0.52573263
Br       5.26545727       5.38598637       9.40915498
Br       2.31132102       7.81336182       3.21694718
Br       5.38071187       4.94598559       1.73265640
Br       2.78498678       2.75358726       5.30164150
Br       5.79829297       9.99558830      -0.35598434
Be       4.67230447       4.10186610      -0.21066193
Br       2.49374387       4.04062470      -0.10682530
Br       5.83926183       2.71013948       5.34350658
Br       2.74580360      10.04044606      -0.40158505
Br       5.51987416       8.72414721       5.05541988
4
Lattice="3.5828511714935303 0.0 0.5306727290153503 1.7457256258877507 3.1245546593950957 0.5361645817756653 0.0 0.0 12.335264205932617" Properties=species:S:1:pos:R:3 pbc="T T T"
Tb       2.91725889       2.87446910       8.15258087
Ca       1.60894342       2.10674180       4.65130348
Sm       2.52292435       0.54292787      10.81224238
Tb       3.87874429       1.33781485       1.67842818
10
Lattice="5.74461555480957 0.0 0.021754944697022438 -3.5233080801008327 5.342482624381974 0.018691599369049072 0.0 0.0 8.492537498474121" Properties=species:S:1:pos:R:3 pbc="T T T"
La       1.41193642       0.92789468       5.85346401
Au       4.16325350       0.84858721       4.59067132
La      -0.35179735       3.61820765       3.32143833
La       2.90591459       1.90091090       1.62075527
Au       0.14858761       1.98717797       0.33394588
Au      -1.59854377       2.75322636       6.71003737
Au       0.16904814       0.08253563       2.45755917
Au      -1.60858463       4.66195521       0.35299457
Au       2.40367636       3.52187384       4.61417830
La       1.14016010       4.57545090       7.58287821
8
Lattice="3.920062303543091 0.0 -0.38547608256340027 -0.08736402777400705 3.855271266977784 -1.0340332984924316 0.0 0.0 7.685063362121582" Properties=species:S:1:pos:R:3 pbc="T T T"
Li       1.47974229       0.88300862       0.22360043
Se       1.84192378       0.18552280       5.35373858
H        0.38005970       2.76843220      -0.36332426
Cu       1.64164329       1.69745510       3.29439674
H        1.00233486       2.66696015      -0.78925099
Se       3.46844568       1.32850623       1.67452181
Cu       3.57286443       3.61605634       2.51694972
Li       3.73982700       2.15049902       4.77370987
6
Lattice="4.306554317474365 0.0 0.006196328438818455 -2.108672957033363 4.577700635558263 -1.1247150897979736 0.0 0.0 6.006269454956055" Properties=species:S:1:pos:R:3 pbc="T T T"
Ag       0.98754198       3.56286282       0.67521384
Au       0.98754351       3.62881366       3.70884419
Au       3.12498758       2.00369615       2.06569374
In       3.12919054       2.13628896       5.12890712
In       0.95722823       0.44269318       3.32077268
Ag       0.95830185       0.55075933       0.37278204
12
Lattice="7.061685085296631 0.0 2.1277754306793213 3.5367996902862164 6.392415903576181 1.06449556350708 0.0 0.0 8.522523880004883" Properties=species:S:1:pos:R:3 pbc="T T T"
Pr       9.63821794       4.70850865      10.79968221
Pr       2.92974471       2.44577401       3.48364449
Pr       6.46091734       0.58366365       4.54639079
Pr       6.32447968       2.44345628       9.79702909
Pr       2.79432388       0.58227279       8.73186571
Ru       4.63132805       0.45049330       2.37941859
I        4.62995252       2.61537203       6.63883727
Pr       6.68579652       4.71175949       4.60815218
Ga       4.63155713       4.70985136       2.38156469
Ru       8.15626374       2.57627695       3.44184721
I        8.16172392       4.70829109       7.70433368
I        1.09500550       0.41034580       5.57564321
6
Lattice="4.437036037445068 0.0 -0.0015563236083835363 0.004478605841736641 4.1917281067096575 -2.406992197036743 0.0 0.0 4.865633010864258" Properties=species:S:1:pos:R:3 pbc="T T T"
W        3.76762102       4.01804734      -1.45981999
Re       1.54946078       2.64744585       2.52634313
Re       3.76774341       2.64297909       0.94949933
Rh       3.76565936       1.21594391       3.34935263
Rh       1.55292788       4.07201517       0.12432623
W        1.54706997       1.27525783       0.06936269
12
Lattice="3.592855215072632 0.0 -0.0025609734002500772 -0.01765749577997187 9.401460278213722 -2.482637643814087 0.0 0.0 11.726981163024902" Properties=species:S:1:pos:R:3 pbc="T T T"
Nd       1.25628781       0.57326571       4.52046910
Nd       1.24885820       4.31097719       0.96653735
Er       1.24382421       7.53399354      -0.48133394
Er       3.04107834       6.90219351       2.60936477
Er       1.25129777       3.01030019       7.00579489
Tb       3.05036863       1.17661876       1.48591372
Tb       1.25390277       1.74907456      10.20254092
Nd       3.05406499       0.02836253       7.58293481
Er       3.04618786       3.67317418       4.04456581
Nd       1.24749362       6.27722719       5.83888880
Er       3.04050076       8.18813611       8.29218793
Nd       3.04467073       4.91399882       9.40938631
16
Lattice="6.835583209991455 0.0 3.9094154834747314 2.283268750822245 6.441443671036533 3.9113357067108154 0.0 0.0 7.906164646148682" Properties=species:S:1:pos:R:3 pbc="T T T"
Tb       4.81669252       5.14168596      11.32325850
Tb       7.09334475       1.92028359       7.37040696
Tb       8.23431420       5.14053875       9.32626140
Y        3.67477451       1.92032889       5.41538462
S        2.56879674       3.54865494       7.33844937
Tb       4.81884890       5.14202575       7.37015838
Ce       3.67597355       1.91963627       9.36880373
S        2.53845209       3.52726065       3.49232823
Ce       8.23488977       5.14203151      13.27853075
S        5.90914748       3.52831649       5.42069783
S        4.81214540       0.31378002       7.33896331
S        5.96920435       3.57144562       9.32063688
S        1.38172731       0.27037342       1.50975837
S        4.78136355       0.29088019       3.49393351
Ce       7.09442320       1.92153408      11.32399808
S        1.44269388       0.31311664       5.40979281
3
Lattice="2.802170753479004 0.0 -0.010625804774463177 -0.005097977689025207 3.835441777580504 -2.2097721099853516 0.0 0.0 4.4321088790893555" Properties=species:S:1:pos:R:3 pbc="T T T"
Ti       2.58807784       0.58287968      -0.06915777
Mo       0.77257611       1.86087195       2.15416154
Mo       1.59720047       3.14141155      -0.06397206
20
Lattice="8.641266822814941 0.0 -3.069309711456299 -1.6991890206075064 9.249123847104805 -3.408980369567871 0.0 0.0 8.90420150756836" Properties=species:S:1:pos:R:3 pbc="T T T"
Pb       5.38150567       7.06396888      -0.58387132
Pb       0.05674796       5.26871759      -0.27714602
Cl       2.49072645       6.50124547       0.99249387
Pb       4.45157070       5.20600165       3.31459094
Pb       1.70761489       9.22095675       1.09105899
Pb       3.41785748       1.69529773       0.91223969
Rb       8.13403734       2.65426728       1.43640252
Cl      -0.65191748       5.49575731       2.69442778
Cl       5.05628430       4.01706902       0.77322209
Cl       4.06803727       0.06612060       7.39580731
Cl       5.62059038       0.32164328       2.52020952
Cl       0.91622114       2.75469867       0.14927290
Cl       1.23088727       5.23409543       6.02709697
Cl       5.14788176       6.60903990      -3.17897984
Cl       6.01004368       7.42319213       2.34040496
Cl       2.79030629       2.70505687       3.59302500
Cl       6.62630203       3.76328095       4.16839182
Cl       0.28100124       8.60849534      -1.40991941
Cl      -1.00404651       8.97853492       2.22208523
Pb       0.12740286       7.44754319       4.74787855
8
Lattice="3.955418109893799 0.0 0.0012121116742491722 0.0025658467205645318 6.501701325521751 -2.275179862976074 0.0 0.0 6.907537460327148" Properties=species:S:1:pos:R:3 pbc="T T T"
Ce       0.26634802       5.07190427       0.62059196
Ce       2.24504770       5.07186978       4.07496656
Sc       2.24306915       1.82188351       1.76029973
S        2.24370042       3.41252420      -0.42272779
Pr       0.26512371       1.82163219       5.21132472
S        0.26373827       0.29851881       0.70608603
S        2.24257982       0.23007349       3.94305123
S        0.26490851       3.34208025       2.81286212
7
Lattice="4.407570838928223 0.0 1.2830603122711182 1.6794362521651955 6.666341071166419 2.454638719558716 0.0 0.0 8.306818962097168" Properties=species:S:1:pos:R:3 pbc="T T T"
Pt       1.87149516       6.26334911       8.03089195
Cs       2.25087622       2.81603013       6.70454005
Bi       4.65825511       6.19636749       6.63410881
Bi       3.85589768       0.50991995       9.44409780
Cs       0.97911465       2.90683000       2.82392782
Pt       3.03936915       6.13389296       3.95172907
Bi       3.78282958       5.21775471       9.67359360
10
Lattice="4.090851783752441 0.0 -0.001944509451277554 -0.003512100883954872 7.290638554544485 0.004287879914045334 0.0 0.0 7.290680885314941" Properties=species:S:1:pos:R:3 pbc="T T T"
In       3.34170470       2.69131520       4.74652666
Tm       1.29570879       0.29880467       3.49256098
Tm       1.29273684       1.44268970       7.13900945
Zn       3.33904554       5.43758564       3.84809675
Zn       3.33679041       7.23732463       5.64618283
Zn       3.33953325       1.79360892       1.99731781
Tm       1.29568436       3.94278541       2.34980889
Tm       1.29203753       5.08883583       5.99748333
Zn       3.33847216       3.59338050       0.20190713
In       3.34077421       6.33728327       1.10310254
5
Lattice="3.610808849334717 0.0 -1.413365125656128 -0.5414859092296214 3.561810325814977 -1.4000587463378906 0.0 0.0 5.36613130569458" Properties=species:S:1:pos:R:3 pbc="T T T"
Ni       0.40638539       3.31360224       3.06012319
Na       1.44357994       2.42421753       0.37552683
Ni       2.48365214       1.53441215       3.05572758
P        0.28786605       1.08078300       2.75692868
P        3.14374588       0.20585467      -0.60678860
12
Lattice="6.981064319610596 0.0 -2.151992082595825 -1.4228614271905684 8.133178008267032 -4.415884494781494 0.0 0.0 10.16118335723877" Properties=species:S:1:pos:R:3 pbc="T T T"
Cs       3.26936428       3.12823537       5.41311559
Cs       4.41754072       6.65040293       1.55531714
Na       1.43816397       7.60745726       4.32581615
Na       4.13266966       3.23424819      -0.70981728
Na       0.52447243       2.51919485      -1.26389444
Na       0.18645603       7.26432659       0.22511041
Na       6.25349873       2.17237287       2.65192845
Na       0.00396905       5.56975421      -2.93230939
Na       2.75640946       1.12761350       1.73250251
Na       0.70248896       4.21341190       1.89585097
Na       3.56833154       6.54099451      -2.47438512
Na       6.36263585       0.51175329      -0.50742996
10
Lattice="2.963426351547241 0.0 -0.012007066048681736 -0.014296049215295873 2.9667543244203123 -0.0074604349210858345 0.0 0.0 14.989136695861816" Properties=species:S:1:pos:R:3 pbc="T T T"
Ga       0.39900122       2.76130928       6.56602263
Rh       1.88994845       1.27820196       8.11290608
Be       0.40240059       2.76258282       0.64281695
Ga       0.40104754       2.76169955      12.78577413
Rh       1.88963655       1.27804829      14.27887065
Rh       1.88770208       1.27778499       5.03293444
Ga       0.40066092       2.76195967       3.46494591
Ga       0.40188048       2.76380420       9.66182369
Rh       1.89140190       1.27986631      11.21217390
Rh       1.88981916       1.27896932       1.97257379
11
Lattice="3.4762072563171387 0.0 -2.4471850395202637 -3.4021678889830587 6.050704285902225 2.4355523586273193 0.0 0.0 7.289018630981445" Properties=species:S:1:pos:R:3 pbc="T T T"
Br       1.87303980       0.06940956      -0.09962956
H        0.97417370       3.92733943       0.57983706
N        2.22574679       0.02749967       3.28716762
H        0.97389829       2.14810400       0.58133409
H        2.24023243       0.05718149       2.26644756
Br       0.85487375       3.14050158       4.30353403
H        0.52371548       3.02959339       1.98272094
H        3.17252891       0.06479221       3.64775666
H       -1.66838391       5.23850624       6.06668465
N        0.49059817       3.04816831       0.91023795
H       -0.50625946       3.03369759       0.52776329
4
Lattice="4.15619421005249 0.0 -0.0005734253791160882 -0.0012160715931797635 4.170668424700408 -1.684814214706421 0.0 0.0 6.018320560455322" Properties=species:S:1:pos:R:3 pbc="T T T"
Ca       2.29736915       1.83129910       0.53904265
Ga       0.21915128       0.01327515       2.04759935
Ge       2.29640846       0.64015151       3.60048374
Pr       0.21802360       2.98815882       3.41428482
5
Lattice="3.820413112640381 0.0 -1.122269868850708 -0.3283117507521637 3.7982647347578253 -1.1210567951202393 0.0 0.0 7.0645012855529785" Properties=species:S:1:pos:R:3 pbc="T T T"
Pt       3.02016691       1.62304337       0.80544278
Pr       1.63201331       0.11456360       3.15227508
Pt      -0.08542426       2.40142734       4.37270334
Li       2.34201468       2.96022668      -1.50271878
Au       0.59491570       1.06177814      -0.38442123
16
Lattice="4.441362380981445 0.0 0.004961829166859388 0.005341742673163733 6.401061690201985 -3.211351156234741 0.0 0.0 9.556090354919434" Properties=species:S:1:pos:R:3 pbc="T T T"
Zr       2.04815293       5.79715217       6.25829461
Zr       2.04762388       5.92008821      -0.12899570
Zr       4.26549782       1.10864364       8.03435420
Zr       2.04374858       2.59338840       0.08336222
N        2.03935838       1.15606171       4.72136972
Zr       2.04993565       5.98264131       3.09103344
Zr       2.04580269       2.72928817       6.42074342
Zr       4.26719359       4.27286790       1.48770146
Ga       4.26872002       4.34966515       4.66251804
Zr       4.26441273       1.20255847       4.62946165
Zr       2.04543359       2.83451421       3.23373314
Ga       4.26828099       4.20709619      -1.64156440
N        2.04341252       1.07612386       7.97853974
Ga       4.26631301       1.16364420       1.50921751
N        2.04774158       4.35525576       1.49731367
N        4.26993394       5.90708862      -0.01555848
4
Lattice="4.154168128967285 0.0 1.091989517211914 1.9320882365544487 3.6757912102060932 1.094822883605957 0.0 0.0 8.440580368041992" Properties=species:S:1:pos:R:3 pbc="T T T"
Nd       3.97500617       3.39952588       3.75103804
Nd       1.19340581       1.71855158       5.88426217
Pt       3.69577439       0.72333505       4.81289905
I        2.58470003       2.55928066       9.03761601
12
Lattice="4.592621803283691 0.0 0.006409189198166132 0.0014038037937001654 6.336014115269475 -3.6023731231689453 0.0 0.0 7.3437957763671875" Properties=species:S:1:pos:R:3 pbc="T T T"
Hg       1.68594290       5.60025475      -0.97780164
Hg       1.68395747       3.62783178       3.12831837
Hg       1.68770254       1.04380070       5.96972666
Hg       3.98288651       3.09751853       0.44565232
F        1.68627957       5.83487610      -3.23639661
F        3.98455389       1.39504776       6.37135045
F        1.68367290       1.34449380       3.57658446
F        1.68452158       2.47416372       0.79873226
F        1.68261648       5.25160776       1.38555554
F        3.98122461       5.08786902      -0.68038456
F        3.97928484       3.50378014       2.64212798
F        1.68456196       3.37422529      -1.87340797
2
Lattice="3.621246576309204 0.0 0.2692844271659851 0.6724972163494266 3.556692502683663 0.18187767267227173 0.0 0.0 4.514864444732666" Properties=species:S:1:pos:R:3 pbc="T T T"
Hg       1.08835544       2.93046193       2.88387472
Pb       2.55652235       1.15244522       0.66399157
14
Lattice="3.761352300643921 0.0 -0.5988785028457642 -0.5831055395705105 8.411101799244591 -3.6186087131500244 0.0 0.0 12.10814094543457" Properties=species:S:1:pos:R:3 pbc="T T T"
Sb       0.18937132       6.88663642       1.41889507
Sb       2.79374973       2.04323259       5.58116424
Sb       3.51313101       0.76311085      10.18296235
Ti       2.61733354       4.82060925       4.56000644
Se       0.08329115       2.32188968       0.74878942
Se       0.62154990       3.14504404       4.12974915
Ti       1.81607775       3.83119150      -0.48584672
Se       1.28785451       7.67599490       8.33547172
Se       2.19250493       4.96549422       1.89492957
Se       1.47690719       2.77842659       9.47195630
Se      -0.17178722       5.52747161      -0.85002579
Sb       1.08451698       5.33255785       7.05782307
Se       2.47426743       0.18980806       3.61465619
Se       0.71997117       6.65825617       4.77364614
4
Lattice="4.618054389953613 0.0 1.3757973909378052 2.1005877970633837 4.1071847413694575 1.3803160190582275 0.0 0.0 8.425621032714844" Properties=species:S:1:pos:R:3 pbc="T T T"
Br       4.45121316       0.73780736       1.93402388
Cs       1.42578090       1.71120294       3.65065157
Br       3.01764952       2.68497044       6.74226606
Ga       4.78594210       3.76529521       9.24129342
16
Lattice="7.6828999519348145 0.0 4.49490213394165 2.5798659208166868 7.241477306109529 4.495450496673584 0.0 0.0 8.906298637390137" Properties=species:S:1:pos:R:3 pbc="T T T"
Sm       3.82824880       0.13834918      10.26853020
Y        3.82797853       0.13730586       5.81682094
Ce       7.66817855       0.13729360       8.06150169
Sm       5.12013845       3.75730416       8.06514617
Sm       8.95994025       3.75850839      14.76589466
Y        5.11835003       3.75852220      12.51841926
Y        7.67032788       0.13781227      12.51764034
Y        8.95942703       3.75633386      10.31171747
Te       6.41724810       1.96302238      10.33666804
Te       3.86885082       5.58430229      10.33931179
Te       3.81985930       5.54838499       5.78922868
Te       6.36586586       1.93307295       5.78584142
Te       2.58352895       1.96691759       3.63274598
Te       7.71071961       5.58770868       8.12993130
Te       7.65098752       5.54451633      12.49467213
Te       2.52611471       1.92589049       7.99695935
12
Lattice="7.315052509307861 0.0 -1.22496497631073 -3.7481198181002364 6.28704119957838 -1.2153180837631226 0.0 0.0 8.4148530960083" Properties=species:S:1:pos:R:3 pbc="T T T"
Mn      -0.27230457       1.13115257       7.17483628
La      -0.29337007       5.29773814       5.95467478
Rb       1.61637727       0.05667142       2.96408540
Se       4.16643255       5.20199925       3.70208747
Rb       5.15512070       2.20292303       1.74393820
La       3.31573780       3.24813739       5.95186220
Se       2.35860610       5.76333333      -1.22388312
Rb       1.51416653       4.27651463       1.74454875
Se       2.07175498       1.51287087      -0.21272740
Se       0.66989506       2.79287108       4.69749409
Se       4.69712892       0.74836927       4.92283987
Se      -1.14670109       3.34195351      -0.20618647
7
Lattice="5.169074058532715 0.0 -1.5854743719100952 -0.47953650421574456 5.144498253699161 -1.5791279077529907 0.0 0.0 9.273965835571289" Properties=species:S:1:pos:R:3 pbc="T T T"
Fe       1.27241959       1.83046431       4.56099756
Rb       2.96372857       3.69352097       0.85646480
Br       1.99011780       2.62689411       6.92756141
Br       1.02712199       4.40291689       3.76356471
Rb       4.25864041       5.11229412       5.09453759
Br       0.54222959       1.03575191       2.18851352
Br       3.85348025       1.83017746       3.75947634
18
Lattice="7.099703311920166 0.0 0.027467289939522743 0.05482695538398643 8.422001716829913 -4.821567535400391 0.0 0.0 9.70625114440918" Properties=species:S:1:pos:R:3 pbc="T T T"
Ca       4.47145269       5.15290657       2.97556881
Ca       4.48655238       7.95555473      -1.86727745
Ca       6.22742244       2.34551334       4.58948952
Ca       4.45419786       2.34370693       7.81637973
Tl       2.71342970       7.95961734       4.60087672
Ca       6.24855913       5.15127962      -0.25336126
Ca       2.69816335       5.14648209       6.20006480
Ca       0.94221627       7.95930711      -1.88253784
Ca       6.26726033       7.96177288       4.60972200
Ca       2.71393973       7.95774843       1.36255265
Tl       2.68034440       2.34445967       4.57184396
Tl       6.26325733       7.95933923       1.37108996
Ca       2.67496499       2.34416701       1.33896262
Ca       0.92132672       5.15089258       2.95960618
Tl       6.24558820       5.14740726       6.21640142
Ca       0.90092340       2.34626482       7.80389562
Tl       6.22664671       2.33972012       1.35644050
Tl       2.69689198       5.16053230      -0.26746205
12
Lattice="4.121063709259033 0.0 -0.0028991594444960356 -2.0547379958078418 8.291414835841147 -2.966161012649536 0.0 0.0 11.218328475952148" Properties=species:S:1:pos:R:3 pbc="T T T"
Lu      -0.78251433       4.43586366       7.75718644
Ge       1.27970527       4.69954080       5.34081221
Te       1.27802578       1.45453671       1.25586593
In      -0.77868190       8.22464947       3.20856478
Lu       3.33552688       0.99637992      10.23564960
Te       1.27388951       2.30754833       8.41433095
Te      -0.78168504       7.10505156       6.32526779
Lu      -0.78179273       3.50437990       2.12825183
Te       1.27747919       5.59571769       2.77257731
Te       1.27863577       6.06623818      -1.64462843
Te       3.33422169       2.71911810       5.01348076
Ge      -0.78095135       4.52608903      -0.55163714
10
Lattice="4.468717575073242 0.0 1.467555284500122 1.44171715312946 4.567319052254474 0.44193360209465027 0.0 0.0 7.204985618591309" Properties=species:S:1:pos:R:3 pbc="T T T"
Cu       0.70142517       0.85241929       6.73904752
Al       5.44272322       3.13820761       2.52963722
Al       3.37514976       0.85206055       6.19232773
Al       1.58751164       0.85617230       4.14661279
Al       3.65437380       3.13263499       7.68091593
Zn       4.56340912       3.12964560       5.07423919
Cu       4.26874395       0.85299091       3.60837750
Zn       1.85449286       3.14650828       5.68625571
Zn       2.76224730       3.12730058       3.10336292
Al       2.48158575       0.84936517       1.57271579
12
Lattice="6.15175724029541 0.0 0.009011833928525448 0.008666047435263372 5.769191908923965 -2.2715065479278564 0.0 0.0 8.466960906982422" Properties=species:S:1:pos:R:3 pbc="T T T"
Ag       4.40220252       1.44448448       5.98812596
Ca       1.36040192       1.18106169       5.31140975
Ca       4.40825980       4.06701783       4.17940736
Ca       4.39911942       0.26465866       2.99204832
Ag       4.40742335       2.88575824       1.18203201
Ag       1.36829489       4.32917173       4.84996319
Ag       2.88600230       3.60854336      -1.21560842
Ag       2.88279710       0.72378235      -0.08299779
Ca       1.36693220       3.14738396       1.84694186
Ag       1.36808153       5.76880024       0.04269881
Cd       5.96104864       3.60834426      -1.21547114
Cd       5.95753748       0.72531060      -0.07699759
8
Lattice="3.618551254272461 0.0 -0.00102335587143898 0.00661391910370122 7.093023554443586 -4.108335494995117 0.0 0.0 8.218972206115723" Properties=species:S:1:pos:R:3 pbc="T T T"
Ho       2.40875341       2.67646917       6.12861149
Au       0.60111380       3.23844739       3.75456174
Ho       2.41213736       5.60862339       3.13765608
Ho       0.60422238       3.95474455       0.60841747
Mg       0.60162951       5.59679958      -2.29749466
Ho       2.40788596       1.42976203       2.02116865
Ho       0.59586236       0.15177447       4.71618038
Au       0.60015463       0.87804731      -0.35607009
15
Lattice="6.954931735992432 0.0 3.2422478199005127 2.7289027070057585 6.405492505026082 3.2368412017822266 0.0 0.0 9.09146785736084" Properties=species:S:1:pos:R:3 pbc="T T T"
K        1.86378239       2.75950635       3.63250393
K        5.34386150       2.76013288       5.24985965
Se       4.43946686       4.46427681      11.73755638
Zr       6.70562660       5.96149836      11.41495547
Ru       1.86210528       2.75909935       8.17658338
K        3.22865779       5.96382694       5.24924759
Se       4.04139847       4.19918363       7.87521559
Zr       3.22865828       5.96027546       9.79297421
Se       6.24668248       1.05781040       7.85571988
Se       7.95591708       4.39668842      13.27476997
Zr       5.33974018       2.75944125       9.79687491
Se       2.72754047       1.12179473       6.32009259
Se       6.64148371       1.32066234      11.71724336
Se       3.03162202       1.32140646      10.03550531
Se       7.65041512       4.19676151       9.55888021
6
Lattice="4.354501247406006 0.0 0.004039942752569914 0.004598171465870629 4.4056019629093415 -1.4561233520507812 0.0 0.0 7.356508255004883" Properties=species:S:1:pos:R:3 pbc="T T T"
Tm       0.92587625       3.80122087       4.82318720
Pb       0.92534411       2.32189592       0.37221023
Ag       3.10026473       1.59820811       5.55035358
Ag       3.10062494       0.09838350       1.03840679
Pb       0.92200130       0.87568155       3.37194723
Ag       3.10154606       3.09917175       2.70416135
10
Lattice="3.7340030670166016 0.0 -0.003614602377638221 -0.011151584385575886 8.003824094755954 -0.023917628452181816 0.0 0.0 8.03209114074707" Properties=species:S:1:pos:R:3 pbc="T T T"
Li       0.00426384       7.00105808       4.58398387
Cd       0.00775043       4.08117164       5.67394409
Cd       0.00451370       5.92381505       1.65264658
Cd       0.01153901       1.92172815       3.52563216
Hg       1.86951212       5.63544828       7.23186038
Hg       1.87302393       4.36153039       3.21620718
Hg       1.87960173       0.36807313       1.95774159
Li       0.00897372       2.99785032       0.58049631
Cd       0.01312396       0.07315790       7.54211864
Hg       1.87885413       1.62443359       5.97128569
8
Lattice="4.847609519958496 0.0 1.481981873512268 2.202175822117255 4.317990612754502 1.4806467294692993 0.0 0.0 8.696293830871582" Properties=species:S:1:pos:R:3 pbc="T T T"
Ce       6.55918973       4.21821741       3.40629739
Tl       4.76437003       3.11747316       9.29670156
Li       1.23926061       0.95892690       3.46628305
Au       2.04620309       1.45468791       9.51771436
Ce       2.96899671       2.01727531       6.49005945
Au       0.43368442       0.46384719       6.10711943
Au       3.82897996       2.54510831       3.66222149
Au       5.69573449       3.68885484       6.23979703
12
Lattice="4.963892936706543 0.0 -0.00868344958871603 -0.018043357387159113 5.53456941569005 -1.6904492378234863 0.0 0.0 5.74107551574707" Properties=species:S:1:pos:R:3 pbc="T T T"
Pt       4.44691114       3.69001193      -0.16099029
Bi       4.45553551       0.92243940       3.55406526
O        0.22190907       5.52846026      -0.01185581
Bi       1.97603967       0.92291600       0.68778105
O        2.70464438       1.85224482       2.58153155
Pt       1.96464129       3.69096167       2.71368847
O        3.21091361       4.49871272       4.14288091
O        0.71808509       2.88066819       1.28756117
O        1.22264826       5.52647599       2.84859859
O        0.73210948       2.89256982       4.15510421
O        3.19746275       4.48962799       1.27038707
O        3.71530344       1.85010947      -0.30075525
8
Lattice="3.784595251083374 0.0 -0.001221903832629323 -1.860057698101798 6.005774945450694 0.0046338546089828014 0.0 0.0 10.03597354888916" Properties=species:S:1:pos:R:3 pbc="T T T"
Pr       2.16593831       2.40322714       0.98904968
Pr      -1.60119452       5.70496814       2.34471111
Tb       0.27667467       2.97843136       4.17293212
Pr      -1.60108561       5.71335149       6.00906805
Tb       0.28713215       5.13366689       9.19266500
Ni       2.15636382       0.88251108       4.16847496
Pr       2.16579349       2.40501378       7.36447096
Ni       0.26864175       1.22532331       9.19166374
12
Lattice="3.5286247730255127 0.0 0.004884797614067793 0.0010468992814756401 5.697585963389394 -0.41355398297309875 0.0 0.0 18.52768325805664" Properties=species:S:1:pos:R:3 pbc="T T T"
Dy       2.19957141       2.03585248      16.81902974
Ho       2.19927685       2.26995192       1.36201071
Ho       2.19813473       5.21932568       2.54646356
Dy       0.43599642       5.59877689       8.42421618
Tm       2.19832691       0.88884177      11.44757116
Ho       0.43402333       3.73842373      11.21325076
Ho       2.20129760       5.43816592       5.64672761
Tm       0.43583603       2.50227507       4.47706656
Ho       2.19762957       4.75709090      14.48473253
Tm       0.43330235       4.97995883      17.97468598
Ho       0.43181888       1.87961899      14.03045301
Ho       2.20227865       2.72137681       7.96675443
4
Lattice="4.367025375366211 0.0 -0.009559279307723045 -2.213732504699692 3.770319441714832 -0.012792657129466534 0.0 0.0 5.520267486572266" Properties=species:S:1:pos:R:3 pbc="T T T"
Pt       0.83395227       1.17786402       0.37810596
Pb      -1.35938790       2.43423135       4.51715842
Pb       0.81614601       3.69041608       1.74637228
Pt       0.83375283       1.17748996       3.13897103
16
Lattice="9.864505767822266 0.0 0.13675494492053986 -4.653413507157439 6.964637603306831 -4.857925891876221 0.0 0.0 9.596223831176758" Properties=species:S:1:pos:R:3 pbc="T T T"
I        5.67030269       0.45020585       0.95521023
Rb       6.22945463       4.09211838       0.78229352
Rb       8.55836261       0.60661858       3.20589671
Rb       8.55796701       0.60559322       8.00868754
I        3.57704859       3.96533513       3.19977601
Sr       1.30499104       4.09005895       0.71184311
Na       6.23179426       4.08958736       5.57928248
I        1.38226727       0.70224345       0.69645047
I        5.87375339       0.50386114       5.57984256
Ag       3.62431344       0.61020375       3.13659121
Na       3.62573213       0.61244304       7.93926346
Na       1.30174152       4.08974054       5.50987259
I       -0.98012629       4.21754915      -1.77016195
I        1.58075228       0.76654824       5.32498103
I        3.60897667       3.93612778      -1.72137525
I       -1.01055944       4.24135614       3.14613120
5
Lattice="3.9214117527008057 0.0 -1.3664181232452393 -0.47611678149941206 3.8942463223442134 -1.365214228630066 0.0 0.0 6.326704978942871" Properties=species:S:1:pos:R:3 pbc="T T T"
La       2.43539607       3.46465616      -1.42887020
Ge       0.31609728       1.06735688       5.11673958
Ga       1.81252276       0.54411045       3.10020708
Rh       3.53560491       2.49189189       1.73607014
Ge       1.11353190       1.96930432       1.08511375
4
Lattice="3.90921688079834 0.0 1.6978397369384766 1.59770458982905 3.5619502697134386 1.7009776830673218 0.0 0.0 5.370693206787109" Properties=species:S:1:pos:R:3 pbc="T T T"
La       3.19776659       0.26177975       3.57536526
Ni       3.72119313       3.12908918       7.76159007
Zn       2.04452086       2.04402317       6.26197965
Ni       4.27258100       0.95608599       6.46427380
10
Lattice="4.5338568687438965 0.0 -0.006450805813074112 -0.0020080025499144972 8.028256165203118 -1.6617636680603027 0.0 0.0 9.186189651489258" Properties=species:S:1:pos:R:3 pbc="T T T"
K        3.93741102       3.27763179       6.70642034
K        3.93271267       7.68902855       3.30696615
S        1.66976599       5.07466492       2.76316639
S        1.67219140       1.18280263       6.87017427
K        1.66509238       6.06637220       5.78139997
K        3.93668676       2.93413242       2.89531005
O        3.93738341       5.75097255       7.11923450
K        3.93133616       5.84218351       0.52697903
O        3.93418265       0.45805527       2.46531494
K        3.93553292       0.35478264       9.04863440
12
Lattice="5.720922470092773 0.0 -2.029083013534546 -1.120500770119052 5.605636828053257 -2.0371053218841553 0.0 0.0 8.522950172424316" Properties=species:S:1:pos:R:3 pbc="T T T"
La       2.84003570       1.80735707      -0.58072813
La      -0.38105010       4.86557700      -0.76630800
Ni       2.52189114       1.43087459       2.41872464
Ni      -0.06828592       5.24318463       4.75622319
Ni       1.90818276       4.36717925       5.78708182
Pb       4.83820027       4.24907114       0.42611014
Ni       0.55021711       2.30593858       1.39093834
La       0.07751857       1.93623210       4.60559879
La       2.38046252       4.73553572       2.56771596
Ni      -0.19598248       1.40229981       7.82016435
Ni       2.64992207       5.27041725      -0.63937774
Pb       3.33923216       2.42332099       4.71747712
6
Lattice="4.98681116104126 0.0 3.0935933589935303 1.7528010787555104 4.672248771153126 3.087360143661499 0.0 0.0 6.130277156829834" Properties=species:S:1:pos:R:3 pbc="T T T"
Sr       1.90030293       2.12779635       6.04804223
Sr       3.63765650       3.33214104       9.11788151
Cu       4.40670435       0.40912587       4.64632620
Li       1.90429941       0.39806702       2.97316552
Li       5.26847674       2.74074617       6.06311958
Cu       4.39968966       0.40551479       7.45614541
9
Lattice="4.174191951751709 0.0 -0.0014636315172538161 -0.0031050117435688605 6.489202710207114 -3.759945869445801 0.0 0.0 7.5020222663879395" Properties=species:S:1:pos:R:3 pbc="T T T"
Yb       1.24973319       2.58890269      -0.32472215
Yb       1.24789763       6.40166787      -1.21877348
Yb       3.33364939       4.74153675       0.91337150
Ni       3.33744295       2.07702328       1.87891990
Yb       1.24995614       3.72500620       3.42008131
Yb       3.33459823       6.40199625       3.78917764
Ni       1.24723359       6.40502363       1.87583825
Ni       3.33542300       4.23995534      -1.87773109
Yb       3.33667414       1.57267837       4.67319678
12
Lattice="3.6477320194244385 0.0 -0.0022322116419672966 8.053776668966472e-05 7.443699836295265 -1.9081834554672241 0.0 0.0 9.333683013916016" Properties=species:S:1:pos:R:3 pbc="T T T"
Tm       0.17098129       3.38411075       0.55413683
Tm       0.16909382       1.61633599       4.09681545
O        0.16985805       6.84323876       1.96111635
Pr       1.99293786       4.25102286       6.81550883
Pr       1.99387305       1.00043289       7.76894437
Pr       1.99441984       6.10237056       3.16942738
Pt       0.16970758       6.12140528       5.64847453
O        1.99349906       4.89694684      -0.15901634
O        0.16847582       2.74768194       7.76833693
Pt       1.99371549       1.67001939       1.74791465
O        1.99536868       1.18032912       5.35068367
Pr       0.16897994       6.72572769      -0.37578994
12
Lattice="6.191092014312744 0.0 -1.484750509262085 -2.5595128734773884 6.757311536289711 -1.4905403852462769 0.0 0.0 9.127931594848633" Properties=species:S:1:pos:R:3 pbc="T T T"
Pr      -1.40605678       6.60797836       7.37215741
Pr       2.56853595       1.71242799       5.77248237
Pr       5.41925029       0.45324153       4.17048844
Pr       3.35060043       2.81008609       0.00134030
Pr       2.07326009       6.10911822      -0.67544244
Pr       0.65241475       2.30312489       2.56131940
Nd       1.29099892       5.04768902       5.14993226
Pr      -0.27133382       3.20584731       8.03150781
Ni       4.65772640       0.84984272       7.52240972
Ni       3.32566528       1.31212940       2.41833991
Pr      -0.49309727       5.70985675       1.90707303
Nd       4.15407009       3.86835216       3.29807923
12
Lattice="5.107092380523682 0.0 -0.002633947879076004 -0.0041095415205391495 7.643800584440278 -2.554154872894287 0.0 0.0 10.208148002624512" Properties=species:S:1:pos:R:3 pbc="T T T"
Y        4.00265833       7.58432760      -1.41655633
Y        4.00338046       4.99381465       6.21760744
Y        1.44805847       7.59956534       1.12780011
La       1.44988646       7.57318393       6.21893930
Y        1.45030291       4.99551634       3.68920004
Ho       1.45116319       2.49257679       6.19951689
La       4.00186718       5.02001200       1.12797163
Ho       4.00468231       2.45742246       3.69903439
Y        1.44974804       5.00812569      -1.44835850
Y        1.45109239       2.46997304       1.14239218
Y        4.00097056       7.59761626       3.65044607
Y        4.00456116       2.47497513       8.75467164
7
Lattice="4.984782695770264 0.0 -0.004149149637669325 -2.4935568473409826 5.5068020583678905 -0.7915122509002686 0.0 0.0 7.87435245513916" Properties=species:S:1:pos:R:3 pbc="T T T"
Er       1.63033241       0.60003036       3.93817500
Y       -0.86158559       2.95350934       4.71470033
Ho       1.62890648       5.32385858       5.51352347
Y       -0.86158842       4.53300474       0.00798859
Tm       4.12328320       1.38489037       1.57247548
Ho       1.62936673       3.74446493       2.35500468
Tm       1.62985620       2.16460257       7.08873968
9
Lattice="4.283168792724609 0.0 -0.00017787376418709755 -0.0043840659731590155 6.215716246427534 -3.587165355682373 0.0 0.0 7.1777119636535645" Properties=species:S:1:pos:R:3 pbc="T T T"
Nd       2.45180076       0.28461363       4.30173260
Nd       2.44916514       4.00401712       3.56303121
Al       0.30827226       1.67945642       2.22078250
Al       0.30611701       5.10815856      -1.36469108
Nd       2.44950614       2.78215630      -0.02612874
Al       0.31053900       0.28510920       6.98309838
Ge       0.30780441       4.42851540       1.41677374
Ge       0.30904936       2.36124247       5.00604835
Ni       2.45200589       0.28444177       1.41629684
4
Lattice="3.6183712482452393 0.0 -0.010671195574104786 -0.040198059980566414 3.634037858161692 -0.009994108229875565 0.0 0.0 9.268128395080566" Properties=species:S:1:pos:R:3 pbc="T T T"
Eu       2.75489749       2.84663082       3.26195258
Eu       2.75818553       2.84476801       9.00846946
Na       0.96734316       1.02996127       6.14318048
Cu       0.96843273       1.02725099       1.50908858
12
Lattice="7.941349029541016 0.0 -0.5139240026473999 -3.8880777992385167 7.890553255249031 -2.9582502841949463 0.0 0.0 8.7726411819458" Properties=species:S:1:pos:R:3 pbc="T T T"
Y        5.30847944       4.09146186       0.47840743
I       -0.20057370       2.39114760       1.31710821
I       -1.25426544       6.07546107       2.88476210
I        2.66176078       6.33071203       4.62403371
I        4.05893684       2.89102208       3.05621668
I        3.92687309       2.09582780       7.37409145
I        2.87745963       5.79094155       0.16801555
Eu       1.18545914       0.24244459       8.11717042
Eu       5.36542534       0.05287565       5.09328928
I        0.01393290       1.84422412       5.61654250
I        3.28198760       0.14243333       2.22080592
I       -1.40483930       5.29205967      -1.58043368
18
Lattice="4.105242729187012 0.0 0.0018105381168425083 -2.0483755059707955 9.01001547712674 0.009266393259167671 0.0 0.0 11.947123527526855" Properties=species:S:1:pos:R:3 pbc="T T T"
Pr       2.87464186       4.25415209       9.39711552
In       0.81714218       0.48023497       7.33951426
Dy       2.87384954       4.29671886       4.90481028
Dy       0.82260975       8.88311214      10.95204616
In       0.82080876       3.66643646       1.40085018
Ag       0.82566853       7.09690561       6.98277579
Dy       0.82664857       8.94063007       3.49253058
Se      -1.22592806       8.71634925       1.20341871
Se       0.82152989       5.65692046       3.18019354
Se      -1.22755816       7.51208760       5.04761341
Se       0.82161310       4.49161157       7.05454375
Ag      -1.23044430       6.11555318       0.98827690
Se       0.82342268       5.72516842      11.08683678
Se       2.87335518       1.48011913       6.06294694
Se       2.87136022       2.68128932       0.12213432
Se       0.82071272       2.25277964       3.69411246
Se      -1.22781583       7.52172100       9.16639414
Se       0.82051238       1.86074805       9.67211739
10
Lattice="5.23001766204834 0.0 0.00011012498725904152 -2.632328389974646 6.905183335376389 -1.4184236526489258 0.0 0.0 8.193119049072266" Properties=species:S:1:pos:R:3 pbc="T T T"
Cl      -0.50308489       3.63388240       0.81672561
Cl      -0.49890686       1.45247202       3.26809845
K        4.74114271       0.21597507       6.25335027
Mn      -0.50302910       3.70090836       3.27062590
Mn       2.11223983       3.61454468       0.50539341
Cl       2.11241050       3.80619449       2.83476895
Cl       2.10604487       5.58455326      -0.40490910
Cl      -0.50796663       6.00167949       3.23230119
Cl      -0.50779700       3.72701371       5.49864384
Cl       2.12070798       1.59776259       7.73548284
9
Lattice="5.304995059967041 0.0 -0.006169974338263273 -2.655100107470745 5.940216664844862 -1.5934385061264038 0.0 0.0 8.362961769104004" Properties=species:S:1:pos:R:3 pbc="T T T"
Sm       4.27510927       1.73943075       4.11993223
Sm      -1.03005097       3.57935102       1.04326741
Er       1.62223438       2.64528725       6.76456669
Er       4.27651876       0.66791764       7.64165086
Hg       1.62169611       5.18107156       0.30843348
Hg       1.62481428       0.17392572       4.78852913
Er       1.62387888       4.18504633       3.46580189
Er       1.62253904       1.14692991       1.67773474
Sm      -1.03247511       4.66546938       5.86030704
18
Lattice="9.740320205688477 0.0 -3.2179112434387207 -4.824011533974955 8.746925012648923 -3.92124342918396 0.0 0.0 11.026835441589355" Properties=species:S:1:pos:R:3 pbc="T T T"
K        3.99357702       4.01723962       4.17568915
I        1.64290467       1.06518268       4.30206941
Zr       4.82774885       3.56012131      -0.91425437
K       -0.24372979       1.04061690       1.35725713
Zr       0.95120936       7.89429041       3.12291998
I        0.26436826       6.85237181       0.42802830
I        2.53630493       3.17281718       0.70483580
I       -3.33077844       6.57329547      -1.93949675
I        3.77967725       7.46056123       2.84636560
I       -1.94815872       7.85005585       3.49577995
I        6.14073772       1.57750446       5.67839246
I        6.39871004       3.61864419       1.46478330
I        7.44348355       4.12364970      -2.23098931
I        0.80355559       5.46155408       4.61603169
I        5.79976942       0.60561483      -1.28111561
Zr      -2.67959328       7.06810531       0.74156167
I        3.21569129       3.35104110       7.81281718
I        4.45155599       6.49574617      -1.19917419
4
Lattice="3.7625153064727783 0.0 2.1735055446624756 1.2491288556845883 3.546676978289037 2.1733827590942383 0.0 0.0 4.345235824584961" Properties=species:S:1:pos:R:3 pbc="T T T"
Sc       3.74884935       3.47372973       4.65844139
Al       1.24296798       1.70033638       4.65790518
Co       3.75269639       0.81311781       4.65712050
Ir       2.49707326       2.58783335       6.83161682
6
Lattice="3.649348735809326 0.0 2.1159350872039795 1.2223221055724305 3.4399568439077557 2.118645668029785 0.0 0.0 4.220674514770508" Properties=species:S:1:pos:R:3 pbc="T T T"
Be       3.60621897       2.06988132       5.29305913
Be       1.78119820       2.07098442       2.12709902
Be       1.78123825       2.07159297       4.23544293
Be       1.17000997       0.35335488       3.17668575
Fe       3.60739313       3.35924674       7.40660731
Fe       3.60519927       0.78294133       3.18254606
8
Lattice="5.029470443725586 0.0 -0.806762158870697 -2.627962063441316 4.28892366572852 -0.8235322833061218 0.0 0.0 5.174701690673828" Properties=species:S:1:pos:R:3 pbc="T T T"
F        0.09782287       3.54984480       1.11214201
V       -1.56969412       3.13725985       0.24459446
F        0.54623396       0.48449824       1.93206625
F       -1.04438231       4.06435946       3.97142364
F        3.98144765       1.49771494       3.75208997
Cr       2.26507420       0.99147208       2.84052052
F        2.93965373       2.21043709       0.89270268
F        1.79554465       2.71545857       3.74877384
6
Lattice="4.572292327880859 0.0 1.5458173751831055 2.0222472280545807 4.103716524388227 1.545949101448059 0.0 0.0 7.571338653564453" Properties=species:S:1:pos:R:3 pbc="T T T"
Li       1.00843904       0.01017664       0.67641328
Au       5.75022170       2.96082796       9.27485363
Bi       3.75153894       1.71592641       7.64818567
Bi       4.78451348       2.35773910       4.56380446
Au       2.70628423       1.06610049       3.16158693
Li       2.00544797       3.47504513       5.26193454
5
Lattice="3.3672001361846924 0.0 0.004445377737283707 0.0044706936665631055 4.483256971967576 -1.395893931388855 0.0 0.0 7.881978988647461" Properties=species:S:1:pos:R:3 pbc="T T T"
Tm       1.64960019       0.21709886       6.74828189
Li       3.33490978       2.87283766      -0.49744107
Li       3.33318543       1.06676713       1.59212224
Tm       1.65346431       3.72003860       2.21919664
In       3.33425311       1.96838435       4.48382164
7
Lattice="5.683106422424316 0.0 1.8931926488876343 2.5399288247424887 5.081944042716069 1.8926336765289307 0.0 0.0 9.575156211853027" Properties=species:S:1:pos:R:3 pbc="T T T"
Be       1.74147043       1.92033279       1.09656884
Rb       4.34421976       0.01262458       2.74614620
Rb       4.81924458       3.82350739      10.92970612
Rb       5.70030800       0.85682701       8.20096514
As       2.38156494       2.31909200       8.73079443
Rb       3.45490236       2.97492514       5.46639561
As       1.09647604       1.51924832       3.03649447
6
Lattice="3.438018321990967 0.0 -0.0011452537728473544 0.000959784559578798 5.04200401707774 0.005777711980044842 0.0 0.0 5.049826145172119" Properties=species:S:1:pos:R:3 pbc="T T T"
Pb       1.35578133       1.83791798       3.84883002
Pb       3.07764819       4.35944712       1.32612207
O        3.07738256       2.81542997       2.88172849
O        3.07635304       0.86055821       4.81732878
O        1.35794127       3.38144917       0.35578965
O        1.35642199       0.29513064       2.28874109
10
Lattice="4.785996913909912 0.0 -2.510668992996216 -3.0448595412012764 4.460862788842429 -0.008840245194733143 0.0 0.0 5.819109916687012" Properties=species:S:1:pos:R:3 pbc="T T T"
Ni       1.08337550       0.42063079      -0.38374663
Na       1.43476949       3.94218150       0.26891456
Sb      -0.40695602       2.68159545       2.59451217
O       -0.77315195       3.53405862       0.61691729
Sb       3.07350205       1.78755973       3.41490412
O        2.01428011       0.06671825       3.45935596
O       -0.54572742       1.41786460       4.31877646
O        1.71518500       3.01002713       2.56250425
O        2.38250140       2.02449079      -0.49705779
O       -0.12256349       1.04805661       1.16080260
16
Lattice="5.735984802246094 0.0 -0.015569336712360382 -0.023005884911742183 8.261392031916294 -0.025588516145944595 0.0 0.0 8.790760040283203" Properties=species:S:1:pos:R:3 pbc="T T T"
Na       4.78852184       4.13475009       4.04240464
Na       2.03595838       4.73574840       1.90221943
Na       1.93775906       4.71036724       6.29865138
Se       3.98911232       2.41269624       1.74458612
Na       1.92877745       0.11189419       6.31665078
Na       4.80357420       0.69750891       4.04814514
Na       4.93758841       4.12876968       8.44811328
Na       2.05420287       0.09672542       1.91881722
Na       4.92728675       0.69891304       8.43750176
Se       3.21283281       6.54750788       8.43826049
Se       3.16366428       6.54865029       4.13075678
Se       0.74746166       6.54194504       4.07021356
Se       2.30028534       2.41988258       8.64107601
Se       5.68487814       2.43104765       6.14975241
Se       0.79466729       6.54909494       8.52011848
Se       1.64887020       2.42012928       4.24387681
18
Lattice="6.5570831298828125 0.0 -2.1349573135375977 -2.892185725897037 6.265728419006479 -3.4718122482299805 0.0 0.0 8.712451934814453" Properties=species:S:1:pos:R:3 pbc="T T T"
Mo       0.91087676       2.15610716       0.98171854
In       3.76925397       4.12348302      -1.42696456
F        0.10142034       1.54298597      -0.84297624
Cs       3.59460969       0.38932995       4.35474888
F        3.61832194       1.98462759      -1.31025710
Cs       3.81476735       4.75959696       2.57765887
F        1.87033326       5.19872861      -2.06425031
Mo       4.26352838       0.54980559       0.15562253
F        2.18797969       3.71375851       0.19776692
F       -0.25471498       0.62860647       1.82539874
F        2.26153147       0.50600736       0.81717098
F       -2.32527640       5.84300540       1.64640401
Cs       0.43889832       2.76569471       5.33982729
F        1.75934885       2.48382422       2.84064212
F        4.63192781       1.93045011       1.69813175
F       -0.63954364       3.65369725       1.21385793
F        4.06963033       3.79015333      -3.39086782
F        0.96933603       5.47583628       3.87151999
6
Lattice="4.477412700653076 0.0 -0.002817858010530472 -0.0014374096895289454 4.480393179152525 -0.0007506127003580332 0.0 0.0 7.658336639404297" Properties=species:S:1:pos:R:3 pbc="T T T"
Sc       3.10221738       4.25951373       7.64461494
Nd       0.86252099       4.25929822       2.69376307
Sc       0.86449743       2.02006983       7.64652715
Ga       3.10236316       2.01913955       1.80147520
Nd       3.10447850       2.02050486       4.93003391
Ga       0.86429569       4.26039741       5.82232227
6
Lattice="2.958768606185913 0.0 0.02598629519343376 0.02480397048385182 2.9657080061057326 0.021817978471517563 0.0 0.0 11.517139434814453" Properties=species:S:1:pos:R:3 pbc="T T T"
Ti       1.72017483       0.18348218       6.09933915
Ti       1.72221495       0.18447595       9.54077266
In       0.25337550       1.66620866       0.33745528
Ir       0.25524707       1.66772340       7.79744009
Ir       0.25370125       1.66539940       4.38119968
Ti       1.71983798       0.18263724       2.65306934
8
Lattice="5.749020099639893 0.0 -3.2177724838256836 -3.7755515149983694 5.393332309403816 -0.09917575865983963 0.0 0.0 6.572623252868652" Properties=species:S:1:pos:R:3 pbc="T T T"
Y        2.14315062       4.53011932      -2.63314477
Y        4.03119272       1.83228656       0.70272379
Tl       4.03257121       1.83242077      -2.58377549
Hg      -0.72833354       4.52937191       2.25580748
Hg       2.14486360       4.53105576       0.65472610
Hg      -0.73539725       4.52830914      -1.03178303
Tl       1.15804790       1.83161614       2.31209013
Hg       1.15629529       1.83687535      -0.97139825
10
Lattice="4.816961765289307 0.0 1.0041863918304443 1.457046230783589 5.060928601648852 -0.05077448487281799 0.0 0.0 5.408980369567871" Properties=species:S:1:pos:R:3 pbc="T T T"
W        4.30157251       3.22622337       1.90865098
O        3.25633868       2.75672776       3.38338376
O        1.39469943       0.79766200       4.26980599
O        5.13250212       4.66208388       2.60828978
O        3.63288831       1.54507374       6.03182215
O        0.80655816       1.81759009       1.14099828
Ti       2.25914923       2.25419778       4.89635577
Ti       0.17308573       0.25378498       0.09312992
O        5.69435908       3.65933609       5.75500739
O        2.93745633       3.95457022       0.81450515
12
Lattice="3.630140781402588 0.0 0.0011332044377923012 0.0007053729193003393 5.897731261987146 -0.31845566630363464 0.0 0.0 19.103254318237305" Properties=species:S:1:pos:R:3 pbc="T T T"
Nd       2.27214280       5.33631328       6.66254228
Tb       2.27246906       3.48347682       9.53736079
Tb       0.46419222       4.61309278      12.92607413
Tb       0.45533462       2.36767977       6.16318821
Tb       2.27161650       2.20039316       2.59135743
Nd       0.45863072       1.97713947      18.43631882
Nd       0.45642318       5.21104620       3.75012154
Tb       2.27559090       4.79157023      16.40144151
Nd       0.45808455       0.52768284       9.69818640
Nd       0.45737592       5.00248286       0.55066702
Nd       2.27528370       1.62783179      12.39941155
Ho       0.46169288       1.77536721      15.24081174
12
Lattice="3.6763365268707275 0.0 0.003833682043477893 0.0029480391217588425 8.019753867944583 -1.9250959157943726 0.0 0.0 8.152820587158203" Properties=species:S:1:pos:R:3 pbc="T T T"
Rb       2.40083138       7.12468973       3.03319942
Zn       2.39589346       2.29054023       3.33327217
Rb       0.55947619       3.75102726       0.71895993
O        0.55953158       1.65558008       4.07087794
Ce       0.55915089       4.18630447       5.03231150
O        2.39913653       4.22489028       3.45122556
Zn       0.56215728       0.54909481       2.35433017
O        2.39737437       4.38360116       6.57189392
O        0.56276650       6.47689393       5.34037125
Ce       2.40046443       6.68199995      -1.27722676
O        2.39878527       1.17938709       1.61227003
O        0.56188136       6.63760339       0.31467233
9
Lattice="6.2906880378723145 0.0 0.009175611659884453 3.1498549306430155 5.451716456728346 0.00258769653737545 0.0 0.0 7.818765640258789" Properties=species:S:1:pos:R:3 pbc="T T T"
Cl       6.96197738       3.80036643       0.29242578
Cs       4.63093431       3.94459768       5.52688618
Co       1.48234910       2.12643336       1.61980232
Cl       3.34328102       1.99997041       0.28999326
Mg       4.62966446       0.30757938       1.61791003
Cl       2.30340687       3.79861139       2.94991352
Cl       5.91346767       1.99885502       2.95306335
Cl       0.44823581       0.58041970       0.28779881
Cl       2.51963894       0.57938705       2.94878309
6
Lattice="4.137997150421143 0.0 -0.0028923270292580128 0.0007582438744114394 4.048858571578637 -1.3989365100860596 0.0 0.0 6.558945178985596" Properties=species:S:1:pos:R:3 pbc="T T T"
Sc       1.87644865       1.40719759      -0.36824020
Au       3.94533469       3.43046245      -1.06868969
Au       3.94475248       0.73516305       4.25403883
Au       1.87582691       0.04038554       2.23572109
Au       3.94621940       2.07522507       1.56469184
Au       1.87713932       2.77201629       3.58767417
4
Lattice="3.7981653213500977 0.0 -1.9887123107910156 -1.058086603905849 3.6459613027407465 -1.985722541809082 0.0 0.0 4.600434303283691" Properties=species:S:1:pos:R:3 pbc="T T T"
Mg       0.59072526       1.03982556       3.49120850
In       1.95981654       2.86095728       1.50176021
Pd       1.80308536       0.12589469       1.18877773
Ni       3.17463559       1.95094623      -0.79675712
18
Lattice="3.971524715423584 0.0 0.005048148334026337 -1.982616143027599 9.00707865495599 0.36059117317199707 0.0 0.0 13.310361862182617" Properties=species:S:1:pos:R:3 pbc="T T T"
Ga       1.59082169       7.94926063       1.33040733
S        1.58620584       0.55165026       8.98633744
In       3.57240578       0.73318573       7.46824329
Ce      -0.39306410       5.09589543       2.56998720
Ce      -0.39613737       6.29801491       6.46405187
Ga       1.58941646       1.93722215      13.06152076
Ce       1.58930279       3.41354330       9.14859688
S        1.59178391       5.69747647       0.70673700
S       -0.40069874       2.49159313       2.20997500
Rb      -0.39478533       6.83831295      11.30469890
S        1.59161066       8.31075191       5.88892142
Ga       1.59133068       1.67740239       3.80119393
S        1.58924268       5.19829360       4.52016216
S        1.58977562       6.03446046       8.51207257
S       -0.39765205       3.28450461       7.19790590
S        3.57466642       0.19465404      12.46282505
S       -0.39622394       8.12308046       2.63998880
S       -0.39842258       3.44859862      10.89102884
10
Lattice="2.873734712600708 0.0 0.0002300853666383773 0.0001985597534098521 7.036697384893858 0.009700879454612732 0.0 0.0 7.052049160003662" Properties=species:S:1:pos:R:3 pbc="T T T"
Mg       1.66530817       2.29158863       6.27593070
P        1.66501869       1.25939355       1.70758565
Ru       0.22855426       3.32095419       1.72154502
P        1.66503717       3.32880867       3.78473858
P        1.66525277       6.84762250       5.24614126
Ru       0.22924867       4.78931624       5.24815032
Ru       0.22913052       6.83558515       0.25883429
Mg       1.66482413       5.81288353       2.75401469
Ru       0.22480437       1.26888534       3.77505261
P        1.66528276       4.77820623       0.26097840
