12
Lattice="66.47521209716797 0.0 357.0525817871094 2.369283322256137 8.9865570758377 338.0649719238281 0.0 0.0 368.0050354003906" Properties=species:S:1:pos:R:3 pbc="T T T"
Er      20.80951567       1.08784369     392.03758596
Rb      42.76238363       8.35494421     701.35393472
Li      35.43092955       2.17400521     364.71770210
Gd       5.66730567       5.05993053     312.51812111
Rb       1.51163684       3.75512168     496.92714120
Cl      25.19349934       7.47057757     468.25861991
Rb      36.02093094       7.26096857     567.12176268
Rb      64.44058307       7.46541882     917.76038056
I       28.25856233       7.98292096     530.74042760
Rb      19.68201357       2.72652472     487.20598855
Pt      48.91219410       0.66950783     609.75924582
Rb      54.65269095       4.06608887     746.33817279
10
Lattice="10.708044052124023 0.0 273.7550354003906 -35.13065651684565 13.103561946522513 298.0077819824219 0.0 0.0 267.3923034667969" Properties=species:S:1:pos:R:3 pbc="T T T"
Rb      -9.16787034       4.78558735     273.38924557
K      -22.18044642       9.97452131     591.37430145
Rb     -25.88307210      11.32501746     561.58345743
Rb      -9.46078686       4.59523239     294.36916259
Rb     -21.02969718       9.39931929     572.49019511
As      -2.82857977       2.54563601     352.45741644
Rb       7.99581759       1.00708368     382.13620996
Rb     -27.34836777      11.33003872     504.07732357
Rb      -0.96152139       3.52394349     429.25364139
Rb     -27.63042900      10.37318875     496.83610080
4
Lattice="4.28295373916626 0.0 2.4491934776306152 1.4211511595408832 4.0406697614216185 2.4497363567352295 0.0 0.0 4.933244705200195" Properties=species:S:1:pos:R:3 pbc="T T T"
La       0.64047170       0.03130094       5.12390772
Ir       4.91756247       3.06096796       7.56441809
Ca       3.48952084       2.04769846       5.10315625
Rh       2.06320281       1.03896596       2.64380298
10
Lattice="2.7728688716888428 0.0 -9.046102604770567e-06 0.0009014741730608926 6.553495821939957 -1.1746273040771484 0.0 0.0 6.704869747161865" Properties=species:S:1:pos:R:3 pbc="T T T"
Li       0.07936228       4.66336532       2.76281481
Pt       1.46630498       3.07217655       1.21500325
Li       0.07872293       2.07995697       3.47072360
Be       0.08044873       1.24716924       1.17572154
Be       1.46480616       0.12897700       4.32857238
Pt       0.07787995       6.44921584       4.90222452
Pt       1.46805664       6.21945973       0.97753352
Be       0.08062351       4.54173405      -0.03785988
Be       1.46509927       1.80808454       5.96978938
Pt       1.46381712       3.83781946       4.92290926
9
Lattice="6.387650489807129 0.0 -2.2844972610473633 -1.9061398634641051 6.870694984142597 -2.359844446182251 0.0 0.0 8.092164993286133" Properties=species:S:1:pos:R:3 pbc="T T T"
Rb       2.84219285       5.38713500      -3.15342464
Br      -0.13255363       6.74614441      -0.59317167
S        4.71789420       5.90778830      -0.34522534
Br       3.48069550       5.21983038       1.37846748
In      -0.51202015       3.81541894       1.25087527
Tl       0.61545364       1.55888419       6.28702380
S        0.37114641       4.44273108      -0.97550878
Br       0.96737869       2.90014477       3.13332328
Br       4.15569839       1.95137573      -1.76973898
12
Lattice="5.807085037231445 0.0 0.055308714509010315 0.07522674017051978 7.4189363390113545 -1.4147495031356812 0.0 0.0 9.140604972839355" Properties=species:S:1:pos:R:3 pbc="T T T"
Ho       0.38371491       2.78891481      -0.39682538
La       3.31233747       6.06153389       5.86578262
Er       0.40620622       4.06265178       5.53297518
Tb       0.41909413       6.55168459      -0.98500847
Tb       0.40597497       5.19165413       2.18270792
Tb       0.35652655       0.35279566       6.19066970
Tb       3.26613313       1.16031940       0.62652045
Tb       3.30336713       4.68825237      -0.08328202
La       3.32945648       7.24574751       2.42648288
Tb       0.37228245       1.67391736       2.92410318
Er       3.29751651       3.57372554       3.20663171
Tb       3.27285881       2.31130787       6.43755941
8
Lattice="4.352040767669678 0.0 1.0365641117095947 2.0489586096286985 3.8371332514800227 1.03866708278656 0.0 0.0 9.669365882873535" Properties=species:S:1:pos:R:3 pbc="T T T"
Rh       3.05984607       1.68079653       9.77434885
Tm       5.45164045       3.11422089       9.37654832
Ga       1.58362222       0.79452474       6.30887570
Tm       0.66510323       0.24690887       0.50297177
Tm       6.25991425       3.59884776       5.97391992
Ga       2.41902750       1.29696350       2.79952901
Ga       4.53143895       2.56373876       3.56900903
Ga       3.69521691       2.06234097       7.08477925
4
Lattice="3.9798977375030518 0.0 1.7121422290802002 1.6226338659495099 3.634246546069848 1.7101391553878784 0.0 0.0 5.487070083618164" Properties=species:S:1:pos:R:3 pbc="T T T"
Ga       4.55125327       1.54139827       6.95310641
Au       2.11453479       2.54265745       1.64892620
Tm       3.29225047       0.72434538       4.39371400
Ga       3.65736967       3.54355228       3.54708992
11
Lattice="5.082989692687988 0.0 -1.640414834022522 -1.311844791367534 7.384640233961335 -4.142462253570557 0.0 0.0 8.6243896484375" Properties=species:S:1:pos:R:3 pbc="T T T"
Ho       0.73650795       5.85626035       3.18796413
In       0.87818915       2.65244702       3.68510726
Sm       1.89241487       5.13925565      -1.87163399
Ho      -0.33473672       6.81806775      -0.10822182
Ho       3.86095441       3.84245786       4.19805929
Ho       1.81850002       1.89569796       6.58376704
Sm       2.96062712       1.20157305       1.47660802
Ho      -0.15425343       3.16235345       0.50503179
In       3.75215618       7.14494601      -4.81595559
Ho       4.07985988       0.24921049       4.92413564
In       2.84031724       4.45259331       1.05229934
9
Lattice="4.411029815673828 0.0 0.0022824602201581 -2.219408153973461 3.8139719122561804 -0.005074357148259878 0.0 0.0 35.497257232666016" Properties=species:S:1:pos:R:3 pbc="T T T"
Sr       0.05612832       1.39824407      16.94949988
Rb       2.26763743       0.11230438      24.92210929
Sr       2.26216259       0.12605780      20.43972893
Rb       0.09474715       1.34131291       4.97800859
Sr       2.28524188       0.11233377      13.50262826
Rb       2.29505685       0.09238843       9.22950412
Ba       0.07671873       1.34640421      32.99797047
Sr       2.30701068       0.06551674       1.09955003
Sr       2.27831957       0.09754577      29.45747304
20
Lattice="9.219986915588379 0.0 1.22281813621521 0.7450525103511285 10.128916530415538 2.114473819732666 0.0 0.0 9.568440437316895" Properties=species:S:1:pos:R:3 pbc="T T T"
I        4.03568998       8.59714969       8.49408290
Tl       8.93677153       7.53927867       6.04184716
I        0.55289733       5.23978522       1.57854048
I        0.26596354       2.98805288       7.97825048
Bi       3.01284023       3.41586264       2.03876710
Tl       3.85256815       4.90243512       8.65289898
Tl       8.63121906       1.90937006       2.91788972
I        3.09448617       1.39541492       4.34832905
Ag       2.43027145       1.75654430       9.22851238
I        7.11973003       5.25935212       7.88650880
Ni       8.35527412       5.14027534      10.18194727
I        8.26045383       7.68680806      10.52166594
I        6.09529500       4.43475833       2.02105363
Ag       6.62522375       9.47083824       9.02412736
I        6.02005429       8.51641583       5.10649360
I        2.72922414       6.48933704       5.86170779
Ni       3.61473937       8.94967636       5.92522408
I        8.22200025       0.36992079       5.80697989
I        2.54596206       9.34672333       3.58495991
I        5.05544765       1.39497238       8.69522997
14
Lattice="18.664709091186523 0.0 70.64383697509766 8.711306080547502 8.620356116281238 57.712013244628906 0.0 0.0 81.47234344482422" Properties=species:S:1:pos:R:3 pbc="T T T"
Rb      13.47572073       6.31586715     129.02839182
Br      18.28486620       0.63267966      88.20254682
Zn      17.65983024       4.15125921      86.33347865
Au      18.54024373       7.91051487     138.22381190
Rb      18.07555957       0.78244756     132.56201275
Rb      20.40976544       5.86085775     102.27607202
Rb      10.37580568       8.47714351      99.85839593
Rb       8.26249472       3.97982208      95.17643965
Br      20.53660465       6.20895802     172.19631439
Rb       7.37646618       1.56519556      57.26533717
Rb       8.34180080       1.38519470      92.14372027
Rb       2.44486233       0.49329381      13.01321934
Rb      12.63229381       3.03807481      72.93035720
Rb      12.95766112       5.98198461      79.70086182
12
Lattice="5.852180004119873 0.0 0.003672091057524085 -2.9220805077400773 5.071230255905282 -0.0012428860645741224 0.0 0.0 8.484766006469727" Properties=species:S:1:pos:R:3 pbc="T T T"
Dy       2.81802003       4.49924474       4.45495335
Sm       2.81633743       1.11822059       3.88204571
Sm       2.81497933       1.12044680       0.79203516
Ir       2.81803443       2.69315071       6.56914101
Ir      -0.10957388       1.23944590       2.34100060
Dy       2.81632243       4.50002490       0.21185278
Dy      -0.10890712       2.81150137       5.01745357
Ir       1.45311607       0.33214570       6.56827003
Sm      -0.10855125       2.80916816       8.11920523
Ir       4.18042425       0.33265635       6.56920258
Ir      -1.47058936       3.59537133       2.34065565
Ir       1.25163342       3.59435510       2.34102498
14
Lattice="27.597002029418945 0.0 246.11122131347656 11.255585128314806 1.7341716015208268 233.2127685546875 0.0 0.0 246.81362915039062" Properties=species:S:1:pos:R:3 pbc="T T T"
Rb      11.42316335       0.35834388     368.17706515
Br       6.30937329       0.79428404     240.97139934
Rb      10.07074715       1.50366412     388.03313763
Hg      15.18638781       1.28691593     236.87328371
Rb      27.28696410       1.49995168     519.33614981
Cs      18.02003908       0.23592555     274.06651747
Rb      21.14785873       0.69909581     382.35944200
Rb      18.89081525       0.25991931     247.92234877
Rb      11.01950775       1.58865542     238.21770432
I       33.03968182       1.07027989     497.97009562
Rb      26.41606981       0.89983814     425.42732516
Rb      12.58691878       0.67095984     334.61373322
Rb      33.12472938       1.13668673     626.06342884
Cu      19.64922081       1.65511426     487.35979917
12
Lattice="35.4089469909668 0.0 926.3145751953125 7.47676100004105 10.76933901746123 850.057373046875 0.0 0.0 880.3583984375" Properties=species:S:1:pos:R:3 pbc="T T T"
Ag      39.25471463       8.88503001    1879.00241748
Rb      18.86397970       8.07879517    1413.12763377
Be      22.92422813       7.73909452    1086.32583972
Rb      25.42071275       7.02460876    1123.33195975
Rb      39.04159559       7.20491535    1492.91275992
Hg      31.61939717       5.31374248    1821.96627424
Er      15.70661799       8.42458298    1286.84769833
Ca      13.40436899       3.67779747     803.03964013
Li      24.23385614       3.48339244    1467.41778974
Rb      26.88374437      10.36106905    2138.32963245
Rb      13.85541032       0.27518741     554.42821371
Rb      16.73332142       4.39016816    1179.16208874
8
Lattice="15.439811706542969 0.0 64.9144058227539 7.1683697832288535 4.591927492870567 46.501136779785156 0.0 0.0 46.95029067993164" Properties=species:S:1:pos:R:3 pbc="T T T"
Ba      13.75438471       1.36407900      68.95551066
Na       6.42016709       1.18819747      62.31688951
Rb      17.91724137       3.00687595     114.82372472
Cs      18.77090500       4.56928865     134.48645569
Rb       9.09509245       0.96439082      47.26410887
Rb      17.73958202       3.80370128     101.76244453
Rb      10.93967438       2.08818547      80.02208370
Br       4.33401502       2.30173964      63.93231841
5
Lattice="3.80306077003479 0.0 -1.4314219951629639 -0.5367578754275113 3.7670904763073185 -1.4293715953826904 0.0 0.0 5.773324489593506" Properties=species:S:1:pos:R:3 pbc="T T T"
Ca       1.89460620       0.31115333       2.08185916
Li       2.44127467       3.13626307      -2.23537236
P        3.16094882       1.77344509      -0.32203856
Pt       0.80840824       1.25286917      -0.80623871
P        0.08832534       2.61402895       3.05236628
6
Lattice="5.004100799560547 0.0 -0.8802878260612488 -2.7849581438662767 4.161070257489366 -0.8750827312469482 0.0 0.0 4.9660139083862305" Properties=species:S:1:pos:R:3 pbc="T T T"
Tb      -1.24731276       3.50535559       1.62627538
Pt       3.93046062       0.73890202       1.62023022
Pt       2.64846338       1.42410666      -0.86299147
Pt       0.17986997       2.74002068      -0.85901278
Pt       1.36330683       2.10958635       1.62280988
Pt       0.11357830       0.10214830       0.01875297
10
Lattice="5.842679500579834 0.0 -0.3878330588340759 -1.8716017520787327 4.923134442442459 -2.5215704441070557 0.0 0.0 9.568479537963867" Properties=species:S:1:pos:R:3 pbc="T T T"
Dy       3.19476903       0.94394606       1.37222029
Dy       4.01904817       1.04814324       7.22875419
Dy       0.54323851       1.45067413       3.41163047
Nd       3.91724222       4.42899127      -2.24018692
Hg       1.40816766       2.05803840      -0.73251069
Dy       0.82023114       3.11461522       6.11216021
Hg       3.46330540       2.56773413       4.40521307
Hg      -0.78213365       3.22033698       0.84764459
Dy       2.05731741       4.21481993       1.78278515
Hg      -0.69266995       4.83248855       3.73241861
10
Lattice="5.2378387451171875 0.0 2.270817518234253 2.660036250845365 4.904530323359008 1.0384706258773804 0.0 0.0 7.154321670532227" Properties=species:S:1:pos:R:3 pbc="T T T"
La       3.83981914       1.94092951       8.76593070
La       2.03818117       0.22099182       5.75851962
Pt       6.90231903       3.54289419       8.88639995
Pd       3.77206367       2.69948281       5.19820278
Pd       5.10235640       0.21648527       5.87778734
Pd       4.75063440       4.40802501       3.09286455
Pd       6.06927280       1.89117520       3.63693491
H        5.34366893       1.88719348       5.31177917
Pd       7.35978842       4.40308254       4.23731631
Pd       6.50076792       2.70366200       6.37600049
10
Lattice="4.809196949005127 0.0 -0.08219605684280396 -0.32028158940464735 8.168834468453399 -1.2910802364349365 0.0 0.0 9.724249839782715" Properties=species:S:1:pos:R:3 pbc="T T T"
Cl       0.08452412       5.51750459       8.73546787
In       2.55579319       5.83637230      -0.06193601
Cl       2.38009908       6.34406781       5.58002495
In       1.51752155       0.03153752       6.01981941
Cl      -0.06765468       7.27862605       2.79700324
In       0.22438726       1.94147621       2.64392701
Cl       2.57665655       1.89187408       4.87276382
Cl       0.27538595       1.14324317       7.70530986
Br       2.68511073       0.16905822       1.05553643
Cl       2.49522431       3.83995911       1.15296313
11
Lattice="5.462165832519531 0.0 -1.602791666984558 -0.1567941598421079 6.421474055484675 -0.5042500495910645 0.0 0.0 10.159018516540527" Properties=species:S:1:pos:R:3 pbc="T T T"
Dy       1.77431268       2.40091047       1.10981402
Dy       4.71791130       4.12283143       1.04816261
Dy       0.89693764       1.60221810       8.26650148
Dy       5.34236150       1.17685441       3.19380190
Dy       4.29532284       0.66883502      -0.41327688
Y        1.26928567       5.05443879      -0.59639551
Y        2.11885060       6.16301774       2.32161023
Dy       3.66325356       3.61561538       7.59867807
Dy       2.64980043       3.18826465       4.12959514
Nd       0.30813064       4.54280198       6.27804376
Nd       3.23800797       0.24652070       6.11831787
18
Lattice="4.1644721031188965 0.0 -9.40099052968435e-05 -2.092415691753374 10.98272065144132 1.1413291692733765 0.0 0.0 12.254133224487305" Properties=species:S:1:pos:R:3 pbc="T T T"
Sn       0.10999069       1.74209126       2.35934360
Cl       0.11051218       1.03394140       7.80801359
Li       2.18255612       6.70145046       6.86184952
Pb       2.19073295       1.18460008       9.90715112
In       0.10227136      10.19975774       6.83457112
Cl       2.18456399       7.65496837      12.70012937
Cl       2.18188314      10.18108270       4.41824251
Cl       2.17656431       8.16739076       8.83498561
Cl       0.10542044       3.08277635      10.47927038
Li       2.18913145       5.48904166       1.34956534
Cl       0.10594812       4.86599778       1.96812871
Cl       2.19106124       2.14741975       4.11155030
Cl       0.10065982       7.25252495       5.78344232
In       0.10659663       6.77480010      10.49611320
Cl       2.19466133       0.67371094       0.45206128
Cl       2.18961811       4.42201407       7.53724111
Li       0.10195503       3.48299634       7.92231798
In       0.10324731       8.16611883       2.84362217
9
Lattice="3.746570110321045 0.0 0.018974902108311653 -0.8934357629184362 5.678734590204807 -2.463654041290283 0.0 0.0 5.926805019378662" Properties=species:S:1:pos:R:3 pbc="T T T"
F        2.84996752       2.97387985      -0.16284961
Na      -0.76114999       5.11132200      -1.26345114
F        1.50789904       1.38840252       0.52690972
F        0.88019541       5.05105210       0.33570544
Cd       1.64937343       3.32572196       1.62747048
Cd       1.84600723       1.01531578       4.28841739
F        3.20173739       2.00155470       2.82350494
F        2.76263489       5.41988213       2.33751788
F        1.13636734       4.08542579       3.53307649
6
Lattice="4.335310459136963 0.0 -0.0004973600152879953 -2.1670285005603067 3.755720608854472 0.00019623212574515492 0.0 0.0 8.171896934509277" Properties=species:S:1:pos:R:3 pbc="T T T"
Ca       1.83959415       0.50531074       1.57466316
La       1.83986933       0.50479799       5.66289297
As       1.83938565       3.00830086       7.67012917
As      -0.32668948       1.75685343       3.65574586
Pd       1.84062036       3.00940426       3.53335708
Pd      -0.32822408       1.75644757       7.79218700
10
Lattice="31.38001823425293 0.0 34.69517517089844 23.921661240408866 9.273836351046118 35.46510696411133 0.0 0.0 54.565311431884766" Properties=species:S:1:pos:R:3 pbc="T T T"
Rb      24.83587269       8.04651295      39.66156194
I       39.36740836       4.09728867      81.40760466
Rb      26.05670813       1.56069603      81.94091205
H       16.37472829       2.87354082      49.79319857
H       16.04784281       3.59533278      43.28936247
Rb      38.63373877       8.68554374      72.85238377
Rb      28.09649492       5.40542337      86.54184218
Li      31.76520690       0.50995950      78.00367503
N       29.56197369       5.78131209      86.12312690
H       13.85142474       4.22387930      47.06860720
10
Lattice="7.0274739265441895 0.0 -0.1741887331008911 3.22751987913574 6.587751117563971 1.0437830686569214 0.0 0.0 9.892715454101562" Properties=species:S:1:pos:R:3 pbc="T T T"
Na       3.04973936       4.42323920       1.72432868
K        6.99630629       1.35663921       9.08362270
Pb       4.50525331       3.94705973       4.57293574
K        6.39955501       0.46227712       4.63486391
Pb       8.60491878       4.90031982       8.57355531
K        2.89888228       0.90141309       3.05986739
Na       7.92959691       3.91918280       5.46246362
K        3.49572953       1.79078957       7.48050783
K        6.56627875       4.43048968       1.62844962
Na       5.18445541       4.93629931       7.69326578
6
Lattice="8.633506774902344 0.0 13.612528800964355 6.803106163411258 6.988606501690219 17.84539222717285 0.0 0.0 18.490001678466797" Properties=species:S:1:pos:R:3 pbc="T T T"
Tm       3.65993621       3.25085632      18.25906862
Mg       8.92755436       3.15982857      32.40294128
Tm      14.74942729       6.74761911      41.92511813
I        7.24772117       3.11169624      18.43939527
Tm      11.59395999       6.88363838      42.51925256
Rb       8.55746733       6.88170557      25.67161080
4
Lattice="3.2586514949798584 0.0 0.0036754824686795473 0.0006694745030063273 3.25786679064929 0.005447888746857643 0.0 0.0 5.635231018066406" Properties=species:S:1:pos:R:3 pbc="T T T"
V        3.12294823       1.54228034       0.38000791
Ta       1.49462264       3.17019116       1.85952143
V        3.12366585       1.54102319       3.34180058
Se       1.49444929       3.16973755       4.67637907
7
Lattice="3.8975250720977783 0.0 1.4190341234207153 1.5438825123292894 5.507786134793149 1.844019889831543 0.0 0.0 6.083049297332764" Properties=species:S:1:pos:R:3 pbc="T T T"
Ce       4.65375452       4.73334662       3.53528981
Ge       1.02338643       1.74459498       1.37200141
Ge       1.85260886       0.31652275       5.16372151
Ir       2.49571319       2.06671983       3.39629234
Ir       1.92163121       5.49606488       4.97602448
Ce       3.66149937       2.83063734       6.26152577
C        2.21053612       3.78031622       4.18914774
5
Lattice="4.3318190574646 0.0 0.8908347487449646 2.0701483744007154 3.805309635025345 0.8903958797454834 0.0 0.0 10.939234733581543" Properties=species:S:1:pos:R:3 pbc="T T T"
La       4.69521190       1.98411330       2.85831082
Br       5.73229968       2.60077238       8.78612516
Ge       2.83974785       3.45509320      11.84559778
La       3.24322209       1.12049763       9.90728019
Br       2.21073130       0.50837121       3.96688722
12
Lattice="6.17398738861084 0.0 -0.21846085786819458 -0.05151841169126511 5.914571029405542 -1.849311351776123 0.0 0.0 6.094722270965576" Properties=species:S:1:pos:R:3 pbc="T T T"
Os       0.80179813       0.09420576      -0.03814263
As       5.87286930       5.76577726       0.26992916
As       4.72021005       2.81510919       1.20875856
As       1.33670967       4.56823888       2.14234752
Os       3.66657874       4.97519222       1.02782951
Os       0.66509033       2.08917043       2.20750383
As       2.99764025       1.00689225      -0.16230607
Se       0.02790495       2.06818132       4.61655797
Se       3.02559332       1.58905877       2.90084883
Os       3.91447527       2.96127199       4.95173014
Se       1.92541552       4.21072693      -0.70609413
Se       4.53285559       5.05897485       3.45653028
10
Lattice="3.5191779136657715 0.0 0.0020433219615370035 0.0047644623453979035 7.484083566449444 0.006674017291516066 0.0 0.0 7.49203634262085" Properties=species:S:1:pos:R:3 pbc="T T T"
Zr       0.16706171       1.39369601       2.53061011
Tl       1.92968743       6.45048502       1.21595163
Zr       0.17131447       5.13497342       3.63990736
Tl       1.92858794       2.70854963       4.95832684
Zr       0.16620869       0.28282564       6.27592470
Zn       1.92976212       5.56088487       5.85110250
Zn       1.93110236       7.34257790       4.07347252
Zr       0.16812832       4.02342355       7.38415182
Zn       1.92779378       1.81856060       0.32125086
Zn       1.92888842       3.60031999       2.10281260
7
Lattice="56.72550964355469 0.0 901.872314453125 23.244154940386473 42.035717837394714 681.1126708984375 0.0 0.0 746.048095703125" Properties=species:S:1:pos:R:3 pbc="T T T"
Ce      14.97409674      24.30400401     929.56463657
Rb      29.58917076      17.25180324     643.49849524
Rb      74.60998760      40.03417746    2128.16895527
Ba      44.61734119      39.90209125    1466.49854189
N       14.49270553      16.46228631     420.19453373
Rb      77.13524024      38.75010892    1933.29415787
Rb      67.47651357      20.72384820    1381.72598201
18
Lattice="10.731287956237793 0.0 2.0756022930145264 3.7367829823511998 9.741341002801201 4.494753837585449 0.0 0.0 10.567655563354492" Properties=species:S:1:pos:R:3 pbc="T T T"
I       10.47527073       5.22000488      12.34778533
Tl       6.28309258       0.29692839       5.53553439
I        6.58586813       8.91519221      10.93981948
Rb       2.89597806       6.44940992      12.03895418
Tl      12.53906155       5.67392857       9.47096314
I        9.97641954       7.13296316       8.26062414
I        4.44093568       4.92744094       9.05776023
I        3.14314755       3.86050581       4.29246849
I        4.84562802       0.44045509      10.72471137
Tl       7.37434162       5.12585470       7.61052412
I        8.41870113       3.37121860       5.06476605
Au       5.77924071       3.64147332       4.61513549
I       13.00115981       8.78829164      11.10610740
I        3.89243085       8.38098666       4.65758416
I       11.01106106       2.64305534      10.04860731
Tl       0.70637641       1.33182513       5.20560531
Tl       6.41537916       8.95757930      13.95654088
I        9.78051896       7.58556825      13.83261985
4
Lattice="8.736051559448242 0.0 21.41550636291504 6.3489375198719245 5.873475459425005 20.532304763793945 0.0 0.0 18.0728759765625" Properties=species:S:1:pos:R:3 pbc="T T T"
Te       4.88415052       3.94452765      32.24574643
Tb       5.90800429       2.58036218      25.46354403
Tb      12.62811834       4.87892511      46.81071581
I        4.94775532       0.61430281      14.17897564
18
Lattice="20.575227737426758 0.0 181.715576171875 -14.50309061710243 8.420555366271698 197.5411834716797 0.0 0.0 200.04971313476562" Properties=species:S:1:pos:R:3 pbc="T T T"
Rb      -0.31500339       7.05443785     294.00645423
Cs      -4.46144473       4.50328836     229.07358502
Rb       0.95163500       2.44162145     302.31884477
Be       0.35112535       3.42732719     156.70310424
N        3.80622043       2.67019741     255.99908323
I       12.21868524       4.62114601     313.96307462
Mo      11.82547258       3.68922758     250.06047712
Rb      12.53114618       4.33968314     300.47609252
Tm      -5.77377224       3.36849398     135.52029326
Rb      11.61295319       3.95648580     396.68197188
Rb       9.92738265       1.15159412     190.58892259
Rb      13.64937527       1.35504877     370.27189633
Ru     -11.37510516       6.71718583     338.71813128
Rb       4.71431653       0.69582638     225.12512581
Rb       8.17047745       3.54284847     238.29875626
Rb      11.02204080       0.88487601     295.43409797
Sn      11.61381822       3.22341882     324.44327693
Ir       9.42232549       4.55763806     292.47778247
10
Lattice="4.369907855987549 0.0 -0.00807258766144514 -0.020964394692353835 6.972706273065869 -3.8057355880737305 0.0 0.0 9.219478607177734" Properties=species:S:1:pos:R:3 pbc="T T T"
O        0.27944521       0.63049288       6.29221694
Eu       2.46023501       2.02023635       5.51531453
Eu       0.27408850       1.68887478      -0.56271996
Eu       2.44394956       6.14204268       3.15240663
I        2.45410807       3.88044956       0.71320905
O        0.27817261       0.63625276       1.65936498
Eu       2.46622207       0.06655331       1.58087161
Eu       0.25982685       6.58995588       0.27099422
I        0.26334401       4.51851566       5.18872849
O        2.46602319       0.49048499       3.91273500
10
Lattice="5.9973320960998535 0.0 -0.801105797290802 -1.2361814961645121 7.861564413993409 0.208285853266716 0.0 0.0 7.946552276611328" Properties=species:S:1:pos:R:3 pbc="T T T"
K       -0.08935358       7.43555577       7.88696502
Tl       2.60071139       6.84988871       4.59634831
K       -0.44046939       3.99278126       4.36169928
Tl       2.88812982       4.55703442       6.86576447
Tl      -0.00936986       3.64762849       0.14604132
Bi       4.57821091       1.25126536       1.04602023
Bi       2.08549430       2.31760405       2.25013272
Hg       3.34546827       1.77985996       5.61575075
Tl      -0.52602658       7.76828820       4.13655808
Hg       2.73454547       5.70946016       1.75334946
10
Lattice="4.492580890655518 0.0 -0.015494468621909618 -0.018929732336121965 4.496301380936186 -0.016254102811217308 0.0 0.0 11.67387580871582" Properties=species:S:1:pos:R:3 pbc="T T T"
In       1.07789477       2.69673171       2.20118081
Al       3.33228672       0.45248479       2.20234805
Au       3.33581623       0.45212057       8.04710757
Au       1.07781836       2.70050650       8.04222573
In       3.32513313       2.69877254       6.40512434
Au       1.08725458       0.45279778       0.71955295
In       1.08874823       0.45056161       9.67546598
Pb       3.32692861       2.70232730      10.96679249
Pb       1.08872207       0.44750524       5.09721103
Au       3.32352484       2.69921983       3.67808872
20
Lattice="6.268756866455078 0.0 0.9701907634735107 2.0134046990023076 5.829458097684672 2.257453441619873 0.0 0.0 9.980785369873047" Properties=species:S:1:pos:R:3 pbc="T T T"
O        6.37420284       3.29395896       4.33446146
Ca       3.06666319       4.36733160       8.72039739
Bi       5.82929779       5.74934013       7.31191491
Ca       7.92254623       4.79113299      12.50914738
Ca       4.25506293       2.81519538       6.02691924
Bi       4.82902817       4.62203397       3.57411989
O        5.66386745       4.58208340      11.58325373
Ca       1.64723537       4.37316098       4.61785317
Ca       2.92191647       1.06698714       8.63209029
O        5.40043061       3.71974993       7.78853306
O        2.43231004       2.91585135       7.21394433
Ca       6.23601572       2.29170136      10.85806753
O        6.26729879       0.36468534       2.23273593
O        1.73099441       0.38452051       4.96200797
Ca       6.86016182       1.80490896       7.40894356
Ca       1.60012335       1.63947255       2.63933335
O        4.58861182       0.76916828       6.91910419
O        3.24856034       3.10132490       3.80209947
O        2.17007220       2.80949665      10.41291514
O        0.75142021       0.50707780       8.20921458
11
Lattice="19.570281982421875 0.0 64.52488708496094 5.87137793699526 3.82610034206185 59.57715606689453 0.0 0.0 74.93765258789062" Properties=species:S:1:pos:R:3 pbc="T T T"
Rb      22.92895865       3.60485165     121.07864826
Rb      11.36617873       1.35118008      54.89436725
Re      20.14265729       0.61031404      99.22887397
Al      10.93475792       1.57586827      90.61851160
Rb      10.01280796       3.02916790     133.40509998
Rb      13.22121719       2.72683849      75.64408945
Rb       4.53923663       2.56139764      42.77556855
Ga      17.45314314       2.12412016     110.08238588
Pt       7.48489442       3.46852204     100.26233669
F        9.99753823       2.78963457      92.95000394
Rb      16.76393589       0.53904098      97.82154794
12
Lattice="36.945701599121094 0.0 857.9015502929688 45.798927699457636 11.25181426235885 861.505615234375 0.0 0.0 806.1984252929688" Properties=species:S:1:pos:R:3 pbc="T T T"
Ti      56.77825307       8.73354418    1910.79401318
Rb      45.51238788       5.52729893    1378.98068899
C       31.55913879       2.63317064     944.66896689
Rb      16.45945639       0.18631568     550.98307642
Rb      36.30720693       4.67404152     780.81699563
Rb      30.06447207       3.07403864     927.49857442
Ca      35.12009722       1.12139364     914.30467264
Cd      58.19112273       8.50159092    1403.04049429
Cs      41.36520367       9.75063956    1065.29881115
Rb      43.52284142       9.27336342    1241.49660691
Rb      20.14371645       3.20686393     513.70328370
Rb      40.43100111       7.50227876     886.59722053
9
Lattice="3.7423880100250244 0.0 0.004243848379701376 0.008304199641933515 6.449464697025261 -3.7160260677337646 0.0 0.0 7.447460174560547" Properties=species:S:1:pos:R:3 pbc="T T T"
Zr       0.37573653       4.58698307       0.01792974
Zr       0.37734821       6.32929523       3.03785676
Zr       0.37279604       2.84671159       3.03542423
Zr       2.24138207       0.81096063       4.20763583
Zr       2.24321518       1.91414588       0.48753783
P        0.36926671       0.28824816       2.02979167
P        0.37224407       2.43610179       5.74993536
Au       2.24632391       4.58875485       2.03253294
Zr       2.24608594       4.58653445      -2.32505890
10
Lattice="4.100954055786133 0.0 0.006994605530053377 0.006530740857287151 4.099969430937929 0.00477544916793704 0.0 0.0 10.119144439697266" Properties=species:S:1:pos:R:3 pbc="T T T"
Rh       3.65580081       1.89639791       7.76434342
Zn       1.60622956       1.89779404       1.43716342
Si       1.60910463       3.94467333       2.87065892
Si       3.65882452       3.94659438       6.50599662
Dy       1.60805711       3.94705405       8.96920825
Dy       3.65664513       1.89749455       4.03773161
Si       1.60564469       1.89722280       6.49938768
Ir       1.60624431       3.94701544       5.23180149
Si       3.65612722       1.89783680       0.02162958
Ir       3.65916143       3.94710268       1.44314294
8
Lattice="5.86732292175293 0.0 2.9380252361297607 0.2265014907040295 5.9840462103555065 3.1959407329559326 0.0 0.0 9.467120170593262" Properties=species:S:1:pos:R:3 pbc="T T T"
Cs       5.07114698       0.48546925       6.53847484
Au       5.76453713       4.52130192       6.41782852
Au       1.94279174       5.00632550       9.13904864
Cs       2.44062721       1.41047980      10.65577974
Te       3.41091259       3.62955747       7.54192153
Te       2.10841205       3.52536143       4.71767459
Te       0.15200207       0.23407538       7.65318616
Te       4.74870923       3.67209262      12.87979291
10
Lattice="4.5473103523254395 0.0 0.8899980187416077 -0.2271217910487193 5.338831012627726 3.089442729949951 0.0 0.0 5.682098865509033" Properties=species:S:1:pos:R:3 pbc="T T T"
Li       1.34459838       0.10622135       0.62106822
F        0.90700336       3.92846189       2.48737306
F        4.38536531       0.70426220       5.95795809
K        3.49977766       3.89972447       7.04121164
F        1.76081750       2.09372672       6.08220044
F        1.35703371       3.06037125       4.48002216
F        0.85632118       0.36026415       2.37023319
Li       0.58001511       2.00053450       3.01657045
F        2.98846073       0.36699683       1.54784914
F        2.94307393       2.41145992       3.53339680
8
Lattice="223.17747497558594 0.0 994.7784423828125 261.85877145453196 26.79758611287418 1005.9728393554688 0.0 0.0 868.2326049804688" Properties=species:S:1:pos:R:3 pbc="T T T"
Pt     312.50366018      24.03631386    1596.49447915
Si     265.78084206       5.77356439    1884.13593558
Ti      25.73224835       0.18182814     305.16913371
Zn     159.12009899       3.81925974    1478.96446962
K      255.65012687      13.55818209    1224.85368821
Pr     107.14197028      10.44381462     456.90815695
Rb     162.61608127       0.83153157    1345.68429517
Na     314.76693705      10.07748211    2172.32332214
12
Lattice="4.194690704345703 0.0 0.7506837248802185 2.737354969432871 6.2391446803059 1.8554767370224 0.0 0.0 13.411458969116211" Properties=species:S:1:pos:R:3 pbc="T T T"
Pb       4.65905409       4.81175668       3.85726860
N        0.89279905       0.01857382      11.80829653
Se       4.77910441       1.82430658       1.60214388
Se       3.69407748       1.97770549       8.69097551
Se       4.25401401       4.65976219      14.28667524
Pb       4.47669634       1.21668309       4.34620514
Ce       1.96296227       2.30298566       6.72865194
Pd       2.41333271       3.12926433       4.09481850
Pd       3.31289688       2.99816012      10.76120583
Pb       5.57869171       4.70348547      10.72029046
N        5.79605083       4.30504105       8.43120689
Ce       2.85657738       1.00920715      12.66184715
12
Lattice="5.395478248596191 0.0 0.6573573350906372 -0.921030500422156 5.766289320917004 -0.3835885524749756 0.0 0.0 9.829568862915039" Properties=species:S:1:pos:R:3 pbc="T T T"
Hg       3.47424003       2.43434258       8.33647959
Na       2.64058059       1.72057902       2.67867916
Hg       0.47527285       3.62000281       1.52412644
Hg       2.36066904       4.54010714       4.29747567
Na       2.87396496       4.85335075       0.20061380
Na       0.73514143       1.21004085       9.29790932
Na       4.75737700       1.87226103       5.36256894
Au       1.82033758       0.92655424       6.47422875
Au       5.23890967       0.17941569       2.82227538
Au       3.49793116       5.52386667       7.27058766
Au      -0.35749607       4.80072308       4.31136310
Na       0.83396152       3.87332446       7.10607631
10
Lattice="5.275065898895264 0.0 -1.0378738641738892 -0.25760828379888806 7.256325420592171 -1.9369391202926636 0.0 0.0 9.83033275604248" Properties=species:S:1:pos:R:3 pbc="T T T"
Sr       4.02143907       6.68585895       0.39028358
Sr       2.77551403       0.07757093       5.67990654
Li       3.43888133       3.45584958       3.17082232
Tl       0.08159812       5.28467436       4.71662868
K        0.87136971       0.79203127       9.23483355
Tl       1.39225398       4.61882111       1.51833133
K        2.96985218       4.21479081       6.88863373
Tl       1.47124646       1.60352574       2.78690639
Tl       0.12305172       2.20722493       5.72487341
Tl       3.92811969       2.71969756       0.34347735
8
Lattice="4.722377777099609 0.0 0.016905857250094414 -2.3284560493076474 5.41604566346861 0.04367560148239136 0.0 0.0 6.975723743438721" Properties=species:S:1:pos:R:3 pbc="T T T"
La      -0.97372524       3.30490328       2.79087305
Al       1.37290012       0.96972537       1.42294151
Al       1.37276543       0.93519550       4.10631806
Al      -0.96973912       4.43573917       6.31533348
Ag       3.72693443       0.11518066       2.71396357
Ag       1.38456817       3.52834449       5.00164458
La       3.73206245       1.20970077       6.26798326
Al       1.39125607       3.57492311       0.66327474
7
Lattice="4.102323532104492 0.0 1.4318370819091797 1.7999245059996969 6.217941115649347 1.4341975450515747 0.0 0.0 6.553802013397217" Properties=species:S:1:pos:R:3 pbc="T T T"
Te       3.88474484       5.51172485       8.17321400
Ni       3.30977603       2.21470152       3.26406814
Co       2.17815326       5.54757957       6.48877795
Te       1.37037857       3.79340337       2.23833101
Te       4.13402940       1.70546641       7.46345304
Te       1.11082253       0.61314857       2.97043433
Te       2.55254841       3.30236060       5.42407167
3
Lattice="4.089240074157715 0.0 221.51390075683594 2.0130899378923464 21.120081746504276 219.8778076171875 0.0 0.0 221.54946899414062" Properties=species:S:1:pos:R:3 pbc="T T T"
Sb       3.56509667       8.70735191     423.50690995
Rb       5.44513441      19.83439302     616.99536857
Sb       1.12586684       9.95364099     175.88516335
10
Lattice="7.1853718757629395 0.0 3.8010194301605225 2.613963763327476 6.692479344242669 3.7999095916748047 0.0 0.0 8.73183822631836" Properties=species:S:1:pos:R:3 pbc="T T T"
I        3.04950493       3.79620289       5.56226130
K        7.77298698       5.46321472      11.49919009
Na       7.01737093       0.03350800       4.18100783
I        2.89374415       0.97613583       9.12686929
I        7.30443444       1.66160570       7.03941174
Na       4.89662574       3.49282530       8.23167938
I        2.68362854       4.76960085      10.37905049
I        6.35376590       6.40722112       8.24812912
I        5.89142313       2.55141576      11.28304368
Ge       3.03718350       2.22822686       3.02817740
8
Lattice="2.9957218170166016 0.0 153.00074768066406 -8.329885881621863 11.991059834517639 155.48655700683594 0.0 0.0 221.322509765625" Properties=species:S:1:pos:R:3 pbc="T T T"
Rb      -3.20030629       5.63747949     324.71255598
Rb      -2.08696735       6.78619709     315.37088950
Rb      -2.83290626       4.54608661     278.08154688
Rb      -5.23510513       8.51617234     186.71023347
Rb      -6.11279725       9.65900490     285.76652094
Rb      -5.53719800       8.01421104     263.65544033
Rb      -3.55980321       7.36101867     201.39655805
Rb      -1.75748691       6.23522938     398.70752958
10
Lattice="3.935551881790161 0.0 0.005117366556078196 0.013879674675531887 5.620083359212099 -3.5761871337890625 0.0 0.0 7.1080403327941895" Properties=species:S:1:pos:R:3 pbc="T T T"
Tl       3.81343739       3.54737761      -1.95943828
F        3.80201676       1.00636954       0.14687077
Zn       1.83549204       0.96941639       0.16401513
F        1.84179931       2.38641488      -1.35076151
F        3.81503990       4.28468775       0.08688598
F        1.84848594       5.06334417       2.26472325
F        1.84858357       5.00186037      -2.08515579
F        1.84154561       2.43495025       1.59001393
Tl       3.81500232       3.62652641       2.15376820
F        3.80989028       1.88389991       3.65173389
8
Lattice="272.809326171875 0.0 2037.1077880859375 -92.46113943664844 204.7740390400187 1882.676513671875 0.0 0.0 2046.335205078125" Properties=species:S:1:pos:R:3 pbc="T T T"
Ag     141.61070770      34.72633780    3301.86902384
Hf     186.14729082     123.16636757    4487.30291598
Au      31.14671278     126.18544282    2688.30183596
B       72.57369033      40.67537302    2446.67632157
Tl      52.05362437      65.23819526    2333.57599183
Tm     218.24752696      19.52627510    3476.64036766
O       27.51167493      84.91590685    2674.58951756
As      13.17348682     164.92981065    2831.63490079
18
Lattice="8.078445434570312 0.0 0.003427055897191167 -4.028058626032162 7.000681393415976 0.0008103500586003065 0.0 0.0 16.15375518798828" Properties=species:S:1:pos:R:3 pbc="T T T"
I        0.43078678       4.44465482       0.96390582
I        3.91960650       2.14198773       0.95499717
K        6.87804755       1.96842735      14.92577566
Cs       6.87504235       1.97102258       6.84804946
I       -2.61006560       4.58789759      12.73161668
I        3.80421103       1.89201275       9.17411451
I        4.17425312       6.31950721       0.95948534
I        0.26914497       4.66591306       9.16138015
I        1.76776187       1.88264163      12.73587995
I        1.84775826       2.12653882       4.50972469
In       2.83679072       4.30390359      10.94872677
Tl      -1.19813119       6.63622127       2.73347228
I        1.28437988       6.44159507      12.73311453
In       2.84135639       4.29769248       2.73080093
I       -3.63461574       6.35104764       9.16682963
I        1.44975023       6.24173877       4.51170681
Ho      -1.19583137       6.63674912      10.95556495
I        5.21076595       4.53641110       4.51086312
18
Lattice="4.402795791625977 0.0 -0.002062869491055608 -2.2023754596949634 8.97538632412317 -0.03935961797833443 0.0 0.0 13.703067779541016" Properties=species:S:1:pos:R:3 pbc="T T T"
Y        3.42147257       2.57499406       0.94209530
Ba       3.42031477       1.24959313       4.91808866
Se      -0.98458417       5.38345429       0.65218004
Ba       1.21897746       5.78145729       3.16185648
Sc      -0.98087607       7.14953582       6.82383234
Se       1.21983405       2.01097878      12.76106818
Sc      -0.98419979       8.38456025      13.65217179
Se      -0.98397112       7.59153941      11.26090681
Se       1.21843128       6.78561606       8.16305454
Ba       3.42130069       0.68016752      10.03476428
Ba       1.21823204       5.23086452      11.76331429
Se       3.42087929       3.85504250       9.66264726
Se       1.22027589       8.66487202       1.29620121
Se      -0.98319004       7.85875179       4.40102087
Se      -0.98175207       4.48847262       5.91891186
Se       1.22044291       1.04872003       7.51748086
Se       1.21794471       2.59946460       2.82612573
Dy       1.21953750       3.90791860       7.78089197
12
Lattice="34.51227951049805 0.0 325.24468994140625 31.476811688602318 42.24360991467573 298.2208557128906 0.0 0.0 360.42529296875" Properties=species:S:1:pos:R:3 pbc="T T T"
Cr      32.19694519      26.39241115     421.64791730
Rb      22.64147100      27.28453878     369.02305887
Rb      46.93497521      21.60628209     634.79935186
Rb       5.59514248       7.25179201     143.20226702
K       15.21906077      10.63745718     162.59836649
Y       42.68704675      29.32378836     476.17917613
Rb      36.48933124      15.37700606     375.97800872
Rb      14.98908557       0.29881075     299.68279595
H       47.05408912      37.54874522     589.69043012
Rb       7.90485386       0.82203445     188.93723005
Rb      39.02611475      17.44223423     374.67709161
Rb      19.57305091       3.33066697     257.59483498
8
Lattice="4.833165645599365 0.0 -0.696158766746521 -0.3560951881037237 7.5959019582678735 -0.2378029078245163 0.0 0.0 8.032686233520508" Properties=species:S:1:pos:R:3 pbc="T T T"
Sr       3.08740585       4.32595829       1.17563950
Sr       2.47660886       5.18127111       5.38005008
In       1.03965547       1.11668757       5.96481595
Te      -0.16743608       6.37471334       3.90255593
In       0.81741586       0.83092079       1.96312990
Te       2.63919986       2.37096392       3.75976353
Te       2.61193900       7.49066315      -0.23069285
Te       0.34496818       3.59280496       7.51659742
18
Lattice="6.739656448364258 0.0 115.58973693847656 32.712772010255314 12.360045727540808 149.74456787109375 0.0 0.0 144.76837158203125" Properties=species:S:1:pos:R:3 pbc="T T T"
Rb      16.76495902       5.55594768     209.46261804
Hg      32.82791407      11.94931838     215.99996430
Br      18.15269744       6.20710087     231.85305216
Pb       5.54848268       0.63754493     187.67441811
I       15.33081479       4.86024048     217.73239692
Rb      35.48147103      10.88726324     298.56575852
Rb      35.91358466      12.31228958     298.44627527
I       10.93171904       3.51877543     168.59209202
Cu      13.51400132       4.17491103     148.89442383
Rb      11.19252120       2.06494073     165.38875557
Rb      25.70805353       7.45896649     336.93312877
Rb       7.30883941       1.04881487     107.97591033
Rb      28.37234035      10.22101621     231.65819859
Rb      21.63914757       5.67477704     243.09373904
I       10.04848286       2.98329920     176.34333721
Rb      10.84532337       2.98090635     147.52890847
I       29.80716529       8.89030870     321.78394893
Hg      24.31480060       8.06736952     199.68293948
6
Lattice="3.6671266555786133 0.0 -0.4541158974170685 -1.3885180433486546 5.763751712719706 -1.8415297269821167 0.0 0.0 7.04569149017334" Properties=species:S:1:pos:R:3 pbc="T T T"
Br       3.01105283       0.86421967       4.69919694
C        2.11184101       1.67254916       0.98274097
N        1.73829929       0.73266409       1.14610157
C        0.74050133       4.82382842      -1.76715040
Br       2.85736384       3.31745075       1.16397692
N        0.90606862       3.94065967       5.00721744
19
Lattice="5.863144874572754 0.0 0.5769343972206116 2.71016530986563 5.1694288331176645 0.5378938317298889 0.0 0.0 14.805065155029297" Properties=species:S:1:pos:R:3 pbc="T T T"
Ga       4.63041988       0.43964734       9.06866795
Ga       4.84097519       0.49013859       5.45885307
Ga       7.11284700       3.77109893      13.51567269
Ga       2.66110634       1.34282774      13.59738914
Li       4.24500156       2.41525950       0.99507915
Ga       4.11016989       3.94921931      13.68301699
Sr       6.26933877       3.34259555       4.04804206
Sr       0.71288999       0.20342195       1.68065360
Ga       1.70830973       0.53008337       4.98214495
Ga       3.46597109       1.62815623       3.32676048
Sr       5.96978490       2.93522657       7.70849798
Li       4.26312438       2.14410678      11.33495638
Ga       2.85674543       1.03629922       7.23518830
Ga       6.43356773       4.77392224       1.14406746
Ga       6.65507265       3.48776784      10.98877662
Ga       3.00982757       3.18837835       8.88347073
Ga       5.63892517       1.17997542      13.81510382
Ga       3.14312842       3.25504362       5.56440403
Sr       1.39875595       0.37000626      10.33274475
5
Lattice="3.297340154647827 0.0 0.02811316028237343 1.579113235494297 6.377406696800747 1.4130364656448364 0.0 0.0 7.049812316894531" Properties=species:S:1:pos:R:3 pbc="T T T"
Tl       0.90353342       1.59245258       3.41588639
N        2.76753785       1.66966261       6.44079411
Tl       3.54917489       4.85593108       7.51971918
Tl       3.55804123       4.84754518       4.02096751
N        2.67874550       1.62643596       0.46880800
10
Lattice="45.107418060302734 0.0 379.78948974609375 7.49671585746182 7.030699127334418 466.2283935546875 0.0 0.0 471.2569274902344" Properties=species:S:1:pos:R:3 pbc="T T T"
Rb      16.16193558       4.02118587     771.63091063
Rb      18.32472632       1.88527570     679.31663700
I       12.93409934       6.58034500     761.60080213
N       42.91921985       5.60392979    1103.42581658
Rb       8.60656619       5.64104153     839.04325813
Sc      15.08595547       3.44928732     585.81728935
Ce      29.53591349       0.40038176     457.18649920
Rb      11.46912220       4.28994311     678.14884234
Pr      41.83123594       2.26397520     594.44641909
Rb      31.94186603       0.48025218     761.24200552
3
Lattice="4.557775497436523 0.0 2.6251461505889893 1.5183943555791046 4.299430615461837 2.6247360706329346 0.0 0.0 5.260318756103516" Properties=species:S:1:pos:R:3 pbc="T T T"
Sn       4.10851300       2.21616278       6.42179727
Eu       1.07127583       0.06768158       1.16916734
Sn       2.58984069       1.14148631       3.79388668
18
Lattice="6.512711048126221 0.0 -2.2491843700408936 -2.1894213219057272 6.459566886857745 -3.348674774169922 0.0 0.0 7.745820999145508" Properties=species:S:1:pos:R:3 pbc="T T T"
Rb       0.84185128       2.28273831       3.35188552
K        5.15682406       0.82682730       4.34842236
F       -0.20428267       3.45034726      -1.63131745
K        2.60213836       2.90465218      -0.48252059
Sc      -0.09163895       5.42315722       2.03218576
F        2.15417056       0.97817604       5.52229462
F        1.10687747       3.97908548       1.32708433
F       -0.67584788       5.16914631       4.00567846
F        4.30582905       5.04291821      -3.69160432
F        1.70280044       5.07570961      -2.03677456
F        5.42693162       1.16251600      -0.77281873
Co      -0.25989223       5.31936194      -1.81510107
F        2.11307078       0.69799598       1.11751459
F       -0.01915966       5.95579569       0.03381281
F        4.84114946       4.28308934      -0.37605203
F        5.77699059       0.25784432       1.77841801
F        1.77199903       5.60274796       3.07904793
Co       2.83679859       6.11611232      -3.15948633
14
Lattice="4.309690952301025 0.0 -0.019535351544618607 -0.045149381761861014 8.834176084984561 -0.6802877187728882 0.0 0.0 11.1959810256958" Properties=species:S:1:pos:R:3 pbc="T T T"
Pr       2.57022702       6.45301110       3.40998815
Te       2.57190348       6.77788892       0.15064125
Ag       0.42503331       5.04631739      10.78737839
Tm       2.59457108       2.07789144       3.90859585
Pr       2.57029176       6.70165544       8.04896437
Te       0.41304145       6.64542116       5.67048220
Te       0.45184476       0.02925517       2.93322813
Pr       2.60194950       1.13771621       0.60878768
Er       0.43702207       2.42941822       7.51776268
Te       0.43216275       3.67879485       2.24268247
Te       2.58126414       4.06604082       5.96313188
Te       0.45089218       0.21363094       9.67165625
Te       2.60289796       0.47142738       6.37505800
Te       2.58708699       3.45064336       9.53456391
4
Lattice="4.6607890129089355 0.0 2.7235565185546875 1.5653582754620172 4.391654988213 2.7234067916870117 0.0 0.0 5.399370193481445" Properties=species:S:1:pos:R:3 pbc="T T T"
Pr       1.08748369       1.75730426       2.98083176
Li       4.19191790       0.65933652       2.99234656
Lu       4.19935703       3.95183629       8.40085740
Tl       2.64323859       2.85444554       5.69120626
20
Lattice="8.332043647766113 0.0 -0.7664867043495178 -2.4229504621522437 9.082436268544523 -1.6034250259399414 0.0 0.0 8.374783515930176" Properties=species:S:1:pos:R:3 pbc="T T T"
Nd      -0.81764294       5.36590702       2.67534163
Tm       3.34630767       5.34801468       6.51516826
Nd       0.97392734       0.00066045       0.57704046
Tm       3.33820782       8.70582453      -1.89393153
Mg       5.28269353       3.69168320       4.25269070
Nd       3.26690254       1.77138629       6.79297487
Nd       2.93519105       9.06911189       2.96495480
Nd       0.56119329       3.81325376       5.39387362
Nd       6.92710921       2.30567401       6.86302759
Nd       2.59229477       1.80546880       3.18872843
Nd       4.87985430       7.22719403       0.80232846
Nd       1.26401748       7.26243031       0.37150574
Mg       1.31179325       3.76457400       0.56231386
Tm       0.56793869       7.31130442       5.12028244
Mg       0.53069691       0.29050287       5.48278166
Tm       6.81924400       5.59008283      -1.55661977
Nd       4.64742416       3.58988673       0.93373175
Mg       5.32742122       6.84101221       4.20908009
Mg       2.66758033       5.45777936       3.12496836
Nd       7.31883858       1.78422223       2.10325512
12
Lattice="4.0556440353393555 0.0 0.0007844952633604407 -0.0004102765156782206 8.361736287542119 -2.0694565773010254 0.0 0.0 9.521867752075195" Properties=species:S:1:pos:R:3 pbc="T T T"
Sm       0.43879938       1.70143206       7.68542506
Tl       2.46620627       0.68797646       1.94549563
Sm       2.46833781       4.65067535       0.30928551
Zn       2.46575873       7.89266073       3.92157074
S        0.44642520       5.19367035       6.54201734
Zn       0.43934929       6.58029572       2.24429531
S        0.43918099       2.79577909       0.67431384
S        2.46484742       3.82244823       7.05503472
S        0.43696662       0.51564835       5.03181322
S        0.43892922       6.49764333      -0.03285942
S        2.46723703       0.01801012       8.25580153
S        2.46755557       5.62585845       3.06493730
4
Lattice="3.2206501960754395 0.0 -1.0231928825378418 -0.6578566434762576 4.288725073992816 -2.0678441524505615 0.0 0.0 5.590839385986328" Properties=species:S:1:pos:R:3 pbc="T T T"
Hf       1.29394416       1.73704818       0.67282750
Ti       0.39141379       2.92781001       3.42611261
Hf      -0.51030536       4.11294815       0.59221375
Mo       2.33154204       0.78432760       3.95043796
6
Lattice="4.3488874435424805 0.0 -0.0005082493298687041 -2.173620326982658 3.765708703150332 -0.0017697454895824194 0.0 0.0 6.526333332061768" Properties=species:S:1:pos:R:3 pbc="T T T"
Li       2.44881347       0.78900469       6.18231058
Zn      -1.90011441       3.29983030       5.03756504
Zn       0.27445372       2.04494586       0.79606387
Pt      -1.90205080       3.30015014       1.18934927
Y        2.44587484       0.78902612       2.91804999
Pt       0.27381814       2.04383010       4.64904027
4
Lattice="4.559036731719971 0.0 0.005934600718319416 -0.10458232369084178 4.561015039000067 0.005516157951205969 0.0 0.0 5.507223606109619" Properties=species:S:1:pos:R:3 pbc="T T T"
Hg       3.04465169       3.35067909       4.79190975
Y        1.91389562       4.45008351       2.03212820
Bi       4.24033529       2.17345160       2.02989547
Hg       0.89379341       0.99860340       4.78450490
4
Lattice="4.090173244476318 0.0 1.5311713218688965 1.7572480237742378 3.6929832271417466 1.5348588228225708 0.0 0.0 6.198040962219238" Properties=species:S:1:pos:R:3 pbc="T T T"
Zn       2.02596220       3.32834672       3.19199262
Li       2.55099142       1.07666321       1.78580796
Cu       4.20578424       2.12270238       3.59867564
Sr       1.45159330       0.38184453       4.71533897
15
Lattice="7.203568935394287 0.0 2.876462936401367 2.005946319781969 7.093459968032685 2.918149948120117 0.0 0.0 8.28904914855957" Properties=species:S:1:pos:R:3 pbc="T T T"
Pb       6.45220047       2.14517788       8.69390457
S        7.42168573       3.41220459      10.88459410
Ge       5.23800668       5.55816740       9.68099322
S        4.17606314       3.62350723       9.36135271
Na       2.65112948       4.82774577       7.33274914
Ge       3.02707684       5.19342695       3.53980659
S        5.84287393       7.06681745      11.19779503
S        1.12279234       3.76480340       3.61545857
Pb       6.94366469       5.41129024       4.79686737
S        2.03578282       6.65402796       9.68423574
Pb       2.38506187       1.53466206       1.94682520
Pb       5.94366912       1.76239758       4.35489013
S        4.52065434       4.06136050       5.07921087
S        3.95078814       0.05373465       3.67181624
S        2.41415218       6.67705593       5.20895239
16
Lattice="4.655570983886719 0.0 -0.3285001814365387 -0.04477689901466215 6.768721772919805 0.24235515296459198 0.0 0.0 10.262544631958008" Properties=species:S:1:pos:R:3 pbc="T T T"
Pr       4.38320881       4.30308695       9.53744887
Si       4.51196850       4.72216254       6.44632896
Pr       2.11651054       3.09484613       5.40887186
Pr       2.13865359       6.49881556       7.21140965
Si       4.28348082       4.01978830       2.40096702
Si       4.41273829       0.64392618       8.90973052
Si       2.17212423       2.84528838       1.07489237
Si       2.48107306       0.86704255       3.70622792
Si       2.08462950       2.10120475       9.05607448
Si       2.08615415       6.57539065      10.25169250
Pd       1.97554921       5.11287014       1.89564468
Pr       4.55688558       0.89646787       1.62548219
Pd       0.11055860       2.22134933       7.40770860
Si       1.10315104       5.67191692       4.27705578
Si       4.42832454       0.79300932       5.11045218
Pd       3.51930792       5.45179932       4.32635750
8
Lattice="5.788155555725098 0.0 3.106210708618164 2.316540716468183 5.004276990859713 2.5192461013793945 0.0 0.0 6.794361114501953" Properties=species:S:1:pos:R:3 pbc="T T T"
Rb       6.42419622       4.37019759       4.68006484
Rb       2.31459368       1.88954184       5.30942088
O        4.67323322       2.20170111       3.45924060
O        3.46729778       3.77067610       7.21852747
O        5.82067131       3.75236720       8.49145556
I        4.07896373       3.34590743       8.88197051
O        2.61315760       2.20893212       2.36864170
O        3.59332833       4.81193352       9.76393313
19
Lattice="19.74700164794922 0.0 65.73675537109375 40.01656509701843 5.525156352881534 76.85661315917969 0.0 0.0 85.949462890625" Properties=species:S:1:pos:R:3 pbc="T T T"
Se      21.04775126       1.79988798      63.63457332
Rb      16.12944512       1.96811097      87.05694094
V       20.81883940       2.50723325      50.91656393
In      33.26347666       2.60488503     104.43884669
Cl      34.19280162       3.83320217     155.39294029
Li      42.73299640       5.21129845     139.52245649
Rb      31.07704682       4.03435617     146.33175045
Rb      22.14283586       0.69108592      94.38832023
Gd      21.37207230       0.26569944     132.29413164
In       4.54604091       0.27740527      61.12527785
In      38.37274410       4.14149382     138.86076866
Rb      51.05832029       4.36634045     159.24185423
Rb       6.85371510       0.09310115      23.16414189
Si      11.19122406       0.30451907      44.19421423
Rb      46.70943438       5.10040419     146.77535545
Rb      32.03271828       2.31813798     166.84242375
Rb      22.65810213       1.71988556     123.63734833
Rb      34.99322989       3.49328445      93.25359301
Rb      26.18127178       1.81205292     106.49315976
6
Lattice="3.247842311859131 0.0 -0.8966109156608582 -0.19078266954509193 5.636067952671989 -0.6952660083770752 0.0 0.0 6.3360137939453125" Properties=species:S:1:pos:R:3 pbc="T T T"
In       3.12296846       1.74300321       0.51388376
Zr       1.23703064       4.58201756       0.00958233
Co       1.96627477       0.54964964       2.65803365
Zr       0.78178346       1.60057314       4.69600695
In       0.34910537       4.19451793       3.12057891
Co       2.42100015       5.43328499       4.30222998
10
Lattice="487.5185241699219 0.0 1428.522216796875 -67.02249381132424 147.94268036191824 1360.1851806640625 0.0 0.0 1535.7581787109375" Properties=species:S:1:pos:R:3 pbc="T T T"
N      330.52640320     113.63301261    3517.79278798
S      273.29614599      69.78160133    2965.01429322
K      125.60312929     144.90526938    1936.05890200
Re     216.54611222     118.38531793    3059.06520097
Ca     226.42973283      75.62085734    2067.41916862
Rb      97.29865259     140.49330633    2764.45374469
Pb     441.04998284      66.57232615    2973.95266407
Mn      96.42965070      32.40664868    1489.37434726
Ag     177.07023172      42.27686095    1039.02299144
Be     250.74301569      46.00208587    2438.53561375
10
Lattice="4.060497283935547 0.0 0.0008585253963246942 0.0030738790884439347 4.065239697848306 0.0015956579009070992 0.0 0.0 10.146232604980469" Properties=species:S:1:pos:R:3 pbc="T T T"
Be       2.39560382       0.16718955       0.75650403
Er       2.39407738       0.16591543       7.01154892
Al       0.36435041       0.16614153       4.46849624
Er       0.36594171       2.19910910       1.96865790
Pt       2.39649838       2.19909893       9.69406284
Be       2.39557576       2.19843282       4.47601322
Al       0.36499043       2.19895088       8.27464190
Pt       2.39463977       0.16646259       3.05105672
Pt       0.36351857       0.16522272       9.69078426
Pt       0.36505852       2.19866084       5.84381671
4
Lattice="4.330868244171143 0.0 1.3278228044509888 1.9608537007647442 3.8604652957644405 1.3279606103897095 0.0 0.0 7.736052513122559" Properties=species:S:1:pos:R:3 pbc="T T T"
Sn       1.43127498       0.24808923       6.51718334
Sn       3.00663860       1.21560568       1.37401980
Rb       4.30507921       2.01099120       4.86340982
Pd       5.38979865       2.67802094       9.05004515
10
Lattice="5.528628826141357 0.0 -0.6558432579040527 2.518395158702447 4.936896679907534 0.6644317507743835 0.0 0.0 6.002093315124512" Properties=species:S:1:pos:R:3 pbc="T T T"
K        5.03386388       3.33159875       4.42364373
K        2.32043969       1.68972096       4.40464418
K        7.74594056       4.90683870       4.52603229
Mg       6.53919466       3.63753733       1.44114894
O        1.64736355       2.63551881       0.54438058
Mg       1.11468731       0.76709337       1.46494612
O        2.95442165       3.85539183       2.77807793
O        2.98345138       0.33981586       0.57771303
O        5.46861873       1.98925802       2.10955891
Mg       3.52799356       2.23119021       1.45747766
6
Lattice="5.465207099914551 0.0 0.0006297649233601987 -2.7317281107883677 4.732483964800285 -0.0015779229579493403 0.0 0.0 6.657834529876709" Properties=species:S:1:pos:R:3 pbc="T T T"
Cd       0.42255663       0.02363908       5.30122596
Ca       0.41964793       3.17887549       4.20022748
Cd       3.15022336       1.60150123       3.10854887
Ca       3.15256970       1.60126880       6.41666205
Ca       0.41982128       0.02315229       1.98919059
Tl       0.41992248       3.17766171       0.87596667
8
Lattice="4.471749305725098 0.0 -1.3877609968185425 -0.9205500411326142 5.995634266364419 -2.6820690631866455 0.0 0.0 6.840592384338379" Properties=species:S:1:pos:R:3 pbc="T T T"
Na       2.70786054       4.02482636      -1.90336363
Na      -0.06034572       0.93387725       4.47013580
Cu       1.34534608       5.41846049       2.43121149
Cu      -0.15631428       5.73512361      -2.11250308
Se       0.02198921       3.72734638       3.46652786
Na       1.73215300       2.58671157       1.23850584
Se       0.97664961       5.47093708       0.02632790
Se       3.45940955       1.30654104      -0.91236218
18
Lattice="7.2867255210876465 0.0 0.49881359934806824 0.9700965692654068 7.850355496599428 1.7850290536880493 0.0 0.0 8.519735336303711" Properties=species:S:1:pos:R:3 pbc="T T T"
Cl       7.31023437       0.28593263       2.99252406
Cl       4.77597564       6.81847916       1.86239400
Na       5.94485238       2.83250370       2.46354490
Cl       3.22266054       2.51427735       5.87231981
Na       4.88360674       0.33450649       6.49791494
Na       1.23289499       4.30425702       5.73878277
Nb       4.93170077       4.06534295       6.81840161
Cl       4.74620085       4.87613381       4.24511526
Cl       3.84492186       3.21781821       8.86627468
Cl       6.48033311       6.16792530       6.36113088
Cl       7.73070124       7.78285463      10.32916086
Cl       6.49681123       2.44896213       5.73199184
Na       2.40822294       5.68208359       9.61146972
Cl       4.02751345       0.74089361       2.84271912
Nb       6.45530356       6.88400822       3.78044195
Cl       6.80679564       4.04075809       8.49802612
Cl       3.22820037       5.85648492       7.03241191
Cl       0.65830916       4.85496755       2.96545557
10
Lattice="4.343644618988037 0.0 2.506486177444458 1.4930324645758757 4.222484878172901 2.4860873222351074 0.0 0.0 5.070549964904785" Properties=species:S:1:pos:R:3 pbc="T T T"
H        3.05307674       1.21412898       4.30777509
H        4.23909527       1.12200955       6.73589878
H        5.14302198       2.75342713       6.00835014
H        1.74471841       4.05031481       5.11698865
H        1.51051388       1.37421590       1.66304089
Co       4.47949905       1.45449870       5.11168614
Pd       1.53119782       2.15458924       5.01915924
Pr       2.98786937       3.39907041       7.52899339
H        4.15910855       2.92404106       4.51872560
Pd       2.91873041       0.38869839       2.63194695
4
Lattice="3.233074426651001 0.0 0.0013044801307842135 0.0010816365004817558 3.231028614195091 0.0003992786514572799 0.0 0.0 6.941029071807861" Properties=species:S:1:pos:R:3 pbc="T T T"
Hf       0.32632787       2.83445977       2.70661233
La       0.32579823       2.83499689       6.17625626
Co       1.94252641       1.21971118       4.11544826
Co       1.94156932       1.21881181       1.29711833
5
Lattice="6.855129241943359 0.0 32.162384033203125 3.9181112323689433 6.2464396839116825 31.99912452697754 0.0 0.0 32.318695068359375" Properties=species:S:1:pos:R:3 pbc="T T T"
Ca       5.73057756       4.36478101      63.35198935
In       3.11716511       1.60789653      24.91214342
Ca       3.36047296       4.85022034      36.71942449
Ca       6.99451394       1.60509522      59.77618244
Rb       8.80913164       4.09266508      76.60739075
14
Lattice="110.79547882080078 0.0 1585.158935546875 -19.500976076321884 67.58755403164257 1772.0789794921875 0.0 0.0 1902.35888671875" Properties=species:S:1:pos:R:3 pbc="T T T"
Tb      41.19814392      59.24716710    3902.03340414
Cd      82.55402813      39.99625820    2922.58967928
Ce      17.82019974      24.13572570    1409.28996314
O       89.46414333      15.51739623    2753.91015697
Na      62.85163998      63.39695001    3849.38945810
Ir      44.28106007      15.51450576    2157.39792444
Ce      97.19123189      36.91064831    3285.01269765
Li      66.64011563      64.24561670    3870.57848714
Rb      -7.71978759      61.11100778    2899.67654506
Mn      57.24394732      41.67367856    2308.47984791
Ca       5.10140763      10.75117841    1004.02553855
Rb     100.09698172      33.06042302    3577.95600086
O       63.12349961      12.31545644    2338.31403439
Rb       3.47126596       3.55276301    1038.61765158
10
Lattice="6.054014205932617 0.0 1.6884323358535767 2.678823653747714 5.440605524670649 1.676865577697754 0.0 0.0 8.855669975280762" Properties=species:S:1:pos:R:3 pbc="T T T"
Ca       1.11379574       0.30780670       2.21457297
Sn       2.21367940       2.87147649       4.16015199
Hg       1.18205188       0.33630627       5.50397443
Sn       4.84057408       2.62316438       6.09315597
Sn       7.25902622       4.14482803       8.66936588
Sn       4.13026002       4.08247412       9.77946113
Hg       6.27938032       3.52750610       3.27463145
Sn       5.81543134       1.36530444       9.80526735
Sn       3.90626852       0.14903886       4.15081168
Sn       2.99343357       1.49463106       8.47831566
10
Lattice="20.4639892578125 0.0 44.387428283691406 1.619632963616701 7.237408479485233 56.27067565917969 0.0 0.0 46.54676818847656" Properties=species:S:1:pos:R:3 pbc="T T T"
O       16.33413628       1.81364244      69.78893247
Te       6.36038203       0.92178439      42.29356366
O        6.69831068       2.52576351      71.91664094
Cs      14.58963321       5.29238463     114.40062581
Te       6.82099463       4.85166547      54.97083220
Rb      14.69473204       3.39858602     101.47413756
Rh       8.96808602       6.46887393      82.41019921
P       16.16285836       5.58074572      88.28596551
O        8.51986784       2.99300885      59.55470639
O        5.89309260       5.32321300      93.64382431
16
Lattice="5.912165641784668 0.0 -1.1880650520324707 1.8395619109400616 5.743242428367515 -0.7477778196334839 0.0 0.0 8.144306182861328" Properties=species:S:1:pos:R:3 pbc="T T T"
K        5.92115639       3.21167485       6.22809565
Nb       2.96682851       1.50447959       4.53882940
Nb       2.33485995       5.20575724       5.19757933
Pr       5.48741885       3.79600090       2.06756093
Nb       0.30341320       0.12527065       1.51491116
O        1.60305080       3.51462947       4.64374825
O        5.86020833       0.04712070       6.53374980
O        1.10679032       0.77941869       4.64762079
O        5.90216829       5.70452354       3.45638858
O        3.45758745       1.98833631       6.34467136
Br       3.03843359       2.01895958       0.05485346
O        3.92644838       2.58954476       3.40426940
O        3.76444594       5.18174801       1.26251544
O        6.14125565       1.92018133       0.77981939
O        3.93758653       4.69561859       5.69447161
O        6.73930637       4.85004879       0.36055268
11
Lattice="4.607038974761963 0.0 -1.343017578125 -1.1439531043381317 7.080577912865735 -3.9099879264831543 0.0 0.0 8.614411354064941" Properties=species:S:1:pos:R:3 pbc="T T T"
Ho       4.32254571       0.53615052      -0.77870980
Ho       3.66572839       4.39234411      -3.02481132
Ga       3.43777216       1.27632115       4.78720852
Ho       0.76020477       3.42165693       4.17019777
Ho       2.54467043       2.11006714       1.70838360
Ho       0.35796651       6.19787203       2.80428138
Ho       0.65613959       0.21824688       3.79920659
Be      -0.10449544       3.50712331       1.19239502
Ho       1.60961468       2.31423517      -1.52813463
Ga       1.24354098       6.12672025      -2.76393466
Ho       2.09393923       5.15778410       0.16906566
6
Lattice="15.275568962097168 0.0 37.77831268310547 7.119627266878752 43.32579639710737 -16.81086540222168 0.0 0.0 30.664506912231445" Properties=species:S:1:pos:R:3 pbc="T T T"
Rb       8.71323090      39.61832374      17.69976065
Rb       9.02817196      36.16454016      19.60707600
Rb       3.02056705      11.42255828      18.18080845
Tl      12.08495833      19.09186280      42.18343995
Cl       5.89731299      14.61872753      18.60709304
H       12.29358590      35.61015942      14.12145144
17
Lattice="7.77288293838501 0.0 -2.602201461791992 0.4211233279673067 8.671050360945031 -4.806790828704834 0.0 0.0 9.98027515411377" Properties=species:S:1:pos:R:3 pbc="T T T"
Tl       6.46381734       4.26960212       3.30814466
Tl       1.44681817       8.37675735       1.78886273
Tl       2.52566429       4.96023383       5.03483872
Cl       4.80461195       6.05597390      -4.61176215
Cl       7.84573913       2.30622550       0.01769466
Tl       4.84725091       6.79636312      -1.22059337
Tl       5.45135957       0.99868436      -1.70518003
Cl       2.28670293       4.89351820      -0.15497347
Cl       0.20233652       1.69997586       8.95924249
Cl       3.37601335       0.78832959       0.83447634
Cl       0.53833359       5.93284523       3.38865593
Cl       4.28013383       8.18090432       1.45657480
Tl       1.73661754       2.67167582       0.80444709
Br       7.14578232       7.90155817      -2.91249060
Cl       1.01083195       5.99134474      -3.17085685
Cl       3.45876442       3.72392579       2.90481124
Cl       2.75017215       2.71576881       6.27585307
12
Lattice="3.958677053451538 0.0 -0.7673529386520386 -0.3874349720619153 8.664961938114413 -1.9662731885910034 0.0 0.0 10.70196533203125" Properties=species:S:1:pos:R:3 pbc="T T T"
Br       0.43276400       0.82064931       2.73576118
Pr       1.16773268       1.47407894       6.61329713
Pr       1.81060280       7.00841009      -0.73722842
Pr       2.19221977       3.35538494       1.21427909
Pr       2.44529325       6.67131193       2.57452377
Pr       3.77310739       0.57010069       9.44798681
Pr       1.10052962       6.54209425       6.26311104
Pr       3.55173411       4.33787397       8.31541846
P        2.87240785       8.27154612       4.81888768
P        0.09926241       5.44855677       1.03041819
P        1.68061262       2.44147460       9.25112760
Br       0.70635598       4.30903856       4.20987788
6
Lattice="4.083014965057373 0.0 -0.0016944973031058908 -0.004507937885872489 4.716648331761513 -2.726052761077881 0.0 0.0 5.446871757507324" Properties=species:S:1:pos:R:3 pbc="T T T"
Pr       1.50754922       0.50915179       0.96515873
Cu       1.50547668       2.08040226       3.68845211
Cu       1.50361709       3.65406808       0.96270277
Pt       3.54594857       2.86666081       2.32556379
Pt       3.54833731       0.50890608       3.68841164
Pt       3.54611721       2.86642466      -0.39881054
9
Lattice="14.186723709106445 0.0 116.49723052978516 -0.17332972997652904 1.4529449798393794 146.21995544433594 0.0 0.0 127.25308227539062" Properties=species:S:1:pos:R:3 pbc="T T T"
Li       2.56782117       0.90990519     117.15783177
Rb       8.09634377       0.40659436     213.30965387
I        6.76870442       1.30218602     210.05334067
Rb       6.68852865       1.33826045     272.71133922
Rb       6.93724567       0.44282676     143.90418634
Sb       4.61505079       0.81457367     154.67757352
Rb       9.46046313       0.48227388     198.53258149
Rb       4.07540096       0.69765147     171.34404659
Rb       0.13269583       0.86096607     114.46006830
5
Lattice="3.751582145690918 0.0 -0.006975068710744381 -0.009803702870722 5.012712905343617 -0.009232578799128532 0.0 0.0 5.010937690734863" Properties=species:S:1:pos:R:3 pbc="T T T"
Y        1.90924324       1.86384052       2.66553295
Y        1.90654937       4.36960748       0.15659866
Ag       0.02949781       4.37219283       2.66566424
Mn       0.03513204       1.86246478       0.16288363
C        1.90983310       1.86408253       0.15984873
8
Lattice="4.660736083984375 0.0 1.4309806823730469 2.1285093527860104 4.147111292532919 1.4298330545425415 0.0 0.0 8.447845458984375" Properties=species:S:1:pos:R:3 pbc="T T T"
Er       4.98316084       2.67373531       5.04053107
Zn       2.02390431       3.71282433       6.43584599
Sm       1.59101361       0.60174361       7.83410426
Au       4.15443353       2.16751171       7.79071206
Zn       3.28690813       1.63696008       2.21643824
Au       0.71676979       0.06777030       2.29255189
Au       2.46771427       1.13662781       4.92656202
Au       5.81358699       3.18109028      10.74185041
11
Lattice="4.0964860916137695 0.0 -1.5165348052978516 -0.834768575977983 5.068236161961034 -2.2234561443328857 0.0 0.0 7.04971170425415" Properties=species:S:1:pos:R:3 pbc="T T T"
Si       2.91938476       0.40076311      -1.08865337
H        3.08740613       2.41844917       3.45447998
P        1.07566676       3.82467704       0.34352895
H        0.23637486       1.75403287       2.94356114
Pd       1.75748311       3.31061642       2.58378094
Pd       0.66601823       2.87200259      -1.67343424
Pd       2.90265186       5.01733362      -0.98120251
Pd       2.16527087       0.87128329       3.64604592
Pd       1.24137015       0.95784005       0.78590025
Pd      -0.31042423       4.90323196       3.33554638
Pd       3.30213920       2.60049309       0.07794867
8
Lattice="5.682665824890137 0.0 -2.5529685020446777 -1.1442499511856428 5.563939588153377 -2.552581787109375 0.0 0.0 7.583098411560059" Properties=species:S:1:pos:R:3 pbc="T T T"
La       0.64596203       2.97891089       2.05043062
La       4.07642319       0.21962711       2.09001568
La       4.62950841       4.38123345      -4.26977408
La       2.35673710       1.59778522      -1.71804346
Si       1.22744002       0.20925920       3.34680675
Si       3.49715172       2.99334206       0.79649475
Au       5.20095058       1.59764775      -2.99923763
Br       1.78897157       4.38270625      -2.99621567
20
Lattice="27.550945281982422 0.0 418.5516662597656 26.946189292999406 5.143079203613186 419.0051574707031 0.0 0.0 410.60906982421875" Properties=species:S:1:pos:R:3 pbc="T T T"
Rb      11.66554518       1.06142797     359.48707614
Dy      26.26373378       3.17079365     778.14078875
Rb      27.23109058       3.16451885     547.27802058
Rb      12.45241240       0.46926575     449.82943707
Rb      44.50682243       4.53219858     908.49166117
Hg      19.36930115       3.65398642     464.95640451
Rb      39.94787330       4.60415355     902.29412938
Te       7.48358290       0.43865614     428.39728837
Rb      27.02204040       3.41402993     630.42523953
Rb      40.20386140       3.35872101     930.42395929
Rb      40.45391010       3.41130469     686.83636478
Dy      43.64284639       4.67367481     919.71234336
Rb      31.82993314       4.66407515     639.82270812
Sb      34.96074715       3.01769973     846.20197253
Rb      19.17102022       0.26179324     541.79509259
Rb      41.48772857       5.01020817     695.74627213
Rb      31.86402756       4.66869948     660.27536721
Rb      24.15225946       0.61133689     576.00914191
Rb      42.09360073       2.82865071     872.12565694
I       32.82837156       3.72582368     872.47779400
5
Lattice="3.252936363220215 0.0 0.003967239521443844 0.007201942303071378 5.120964708063848 -0.006397312041372061 0.0 0.0 5.123335838317871" Properties=species:S:1:pos:R:3 pbc="T T T"
Ca       2.20146327       1.57952790       1.69053221
Ca       2.20775358       4.13909914       4.24902650
N        2.20645782       1.57865433       4.25200042
Be       0.57946382       1.58035478       4.24955047
Si       0.58036519       4.13885709       1.68594092
4
Lattice="3.892598867416382 0.0 0.01068191695958376 0.012117601457818336 3.891630619032348 0.010447814129292965 0.0 0.0 8.312089920043945" Properties=species:S:1:pos:R:3 pbc="T T T"
Tm       1.01045175       2.26344849       1.82966558
La       2.95201181       0.31780141       7.78296949
Sc       2.95233134       0.31818907       3.63108417
Tm       1.01173051       2.26307596       5.42751921
10
Lattice="247.5137939453125 0.0 2159.761474609375 88.52294671108393 53.519909012658395 2179.669189453125 0.0 0.0 2461.275146484375" Properties=species:S:1:pos:R:3 pbc="T T T"
Mn     140.18956888      22.74579768    3095.60927937
H      269.34551398      31.61291353    4033.23742144
Er     143.03375280      44.97886101    2974.79870049
O      147.52035356      29.40107075    2785.93189892
Bi     106.54783621       8.32142365    1677.83362396
W       45.56073494      13.29696696    2065.62390800
Mo      78.60779338      31.15891092    3105.55074213
Rb     220.69114650      43.62442631    4075.16794948
Rb      86.33868897      13.62423825    3370.62933067
Li     263.99219850      48.06496802    3955.46262697
10
Lattice="6.466446399688721 0.0 -2.0387582778930664 -4.441576853743356 5.9289190549208115 -2.471318483352661 0.0 0.0 9.132847785949707" Properties=species:S:1:pos:R:3 pbc="T T T"
Bi       4.78260372       1.80828130       5.55473627
Bi       1.97182011       4.02338681       0.00611475
Ba       0.25848334       0.95462673       1.78901409
La      -0.81961523       5.57117275       5.46260165
Ba       1.44682967       2.10809426       5.42565199
N        0.57624762       4.14522794       4.13670886
N       -1.30769553       4.10322458       3.06680321
N       -2.42798878       5.48374909      -1.98967055
La      -1.49460277       4.35606532      -0.17117212
La       2.20340257       5.12021459       3.16331005
12
Lattice="7.429337978363037 0.0 -1.3802167177200317 -2.9266568948218046 6.835829192251647 -1.5878580808639526 0.0 0.0 9.301641464233398" Properties=species:S:1:pos:R:3 pbc="T T T"
Rb       6.42722727       0.34938162       4.39695657
Tb       1.87483718       2.21244730       0.17605523
Tb       5.80785441       1.01419254      -0.13932082
Cu       0.30460412       5.39774318      -1.63437643
Rb      -0.77932679       5.61306719       1.72163782
Te       0.52089472       2.31339601       2.96279326
Rb       2.87793487       3.53500921       5.43499290
Te       2.59592477       5.09229756      -0.39001925
Te       3.46508823       0.37180800       7.28593634
Te      -2.27949795       6.26541130       7.49423533
Te      -0.85113961       2.98306721       8.18636882
Te       4.16126844       2.19330666       2.17420213
9
Lattice="5.030921936035156 0.0 2.2092597484588623 2.120120431707875 6.099388634560446 2.052403450012207 0.0 0.0 6.959096431732178" Properties=species:S:1:pos:R:3 pbc="T T T"
Zn       3.72389047       3.33624955       9.07925020
Sn       5.47478355       2.35075617       4.99389368
Zn       3.41355175       0.79259711       2.83434743
Sn       4.62421896       5.10201528       6.97812279
Zn       2.67762800       2.62843838       4.53972150
Zn       4.45361537       1.48330118       7.38304812
Sn       6.30198896       4.80736520      10.04235992
Sn       2.95139987       5.39603424       3.91653245
Sn       1.65525991       1.77006382       6.93255183
16
Lattice="7.1822686195373535 0.0 2.1508984565734863 3.6991763944642737 7.187039015399512 1.8888105154037476 0.0 0.0 12.186244010925293" Properties=species:S:1:pos:R:3 pbc="T T T"
Cl       5.62008159       6.20757177       3.67109765
Cl       4.32313704       6.20850564      11.85666282
Cl       5.93929020       1.56885886       2.92456195
Au       5.98415546       4.59352076      11.93043789
Cl       3.52173806       2.77604708       6.46402551
Cl       1.62942615       2.82721075       7.11962555
Cl       4.31035076       6.85073259       6.37760056
Cl       7.51080612       4.81140557       5.04051217
Au       8.90707354       4.47109164      12.60776394
Cl       6.88745962       5.93766781      13.92143535
Cl       5.65820424       3.22365650      10.15878227
Cl       8.99528589       3.91020652       5.86317004
Cl       5.44214855       6.27342206       7.94107813
Cl       2.30178263       2.77667230      11.95567129
Cl       8.73226448       6.33972214      11.24878585
Cl       4.54634284       2.16055646       1.70863209
5
Lattice="3.8174610137939453 0.0 1.4477089643478394 1.1212957257884713 4.880335793384158 2.76891827583313 0.0 0.0 5.723383903503418" Properties=species:S:1:pos:R:3 pbc="T T T"
Ho       1.18033188       1.04903157       1.58445279
Ga       2.27118241       0.95490080       4.45492804
Zn       1.17957478       4.50857023       7.30052372
Ho       3.87402047       3.08697845       5.97421553
Ga       2.78422358       3.18479888       3.10388704
12
Lattice="8.98420238494873 0.0 3.6415040493011475 5.91215513930348 7.742189313976098 0.30075860023498535 0.0 0.0 11.524085998535156" Properties=species:S:1:pos:R:3 pbc="T T T"
Se       6.94890552       4.64125237       6.08874698
I       11.53216881       4.44360135       6.28361718
I        7.56845754       4.47747328       3.30417160
I       12.68024885       7.59316851       8.92926608
Tl       3.20191614       0.45883617       8.56483828
Tl       9.03277259       2.73791637       7.53013884
Tl       6.23805983       7.12005609       6.59807077
Cs       5.16484274       4.52719441      11.54347461
Tl       4.42560774       2.95584210       4.83928540
Se       6.27582685       6.96950459       9.35156222
I        8.59341842       1.49580141      13.71846930
Se       1.96159087       1.48393816       5.99555166
4
Lattice="4.8893327713012695 0.0 2.8084566593170166 1.6268772283433464 4.611381811260885 2.8090763092041016 0.0 0.0 5.63974666595459" Properties=species:S:1:pos:R:3 pbc="T T T"
Pr       4.24533827       3.18216073       7.97369947
Nd       5.87434892       4.33606302       5.14811247
Mg       0.98551533       0.87613285       2.34245359
Ca       2.61612964       2.03135666       5.15891125
10
Lattice="3.9503164291381836 0.0 0.286856085062027 0.002763883663427018 4.648353231802851 -0.0006280290544964373 0.0 0.0 13.484439849853516" Properties=species:S:1:pos:R:3 pbc="T T T"
Li       3.37067342       3.33608961      11.91874995
Sr       0.78097779       1.01041471       0.06935733
Sr       0.48777464       3.34392774       4.02163581
Ge       2.36011728       1.01763408       5.54696551
Sr       0.20318048       1.01441855       8.05379847
Li       2.55566843       1.01594392       2.80372794
Ge       2.33995326       1.01100755      10.84385541
Ge       2.69183671       3.33700254       1.35339698
Li       2.23771800       3.34267624       6.86687578
Ge       1.76952636       3.33863499       9.66744315
8
Lattice="3.291079044342041 0.0 -0.3856310248374939 0.026334385552263043 5.922579869470319 0.3571317493915558 0.0 0.0 7.695390224456787" Properties=species:S:1:pos:R:3 pbc="T T T"
Ga       0.37601167       0.14650478       0.43215434
Al       2.80830088       2.88742844       4.16031608
Ga       1.28433408       2.96493056       0.60980776
Al       2.86933175       5.82956158       4.37193384
Au       2.73768667       4.19703865       6.40887320
Au       0.96209326       1.46679714       2.79038805
Au       1.71278869       1.27682905       6.07098402
Au       0.92483408       4.44838622       2.88355789
4
Lattice="4.711597442626953 0.0 1.321055293083191 2.1765492423109114 4.17918638705862 1.3188868761062622 0.0 0.0 9.094080924987793" Properties=species:S:1:pos:R:3 pbc="T T T"
Tl       4.12045058       1.11469961       6.96166574
I        5.82417242       2.14842637       9.96720751
In       2.96634779       0.41580314       2.00057752
I        2.28761055       2.86619545       4.42892644
8
Lattice="4.01989221572876 0.0 -1.0988930463790894 -1.9520629927552036 7.443096248842626 0.7323437333106995 0.0 0.0 7.865428447723389" Properties=species:S:1:pos:R:3 pbc="T T T"
Pr       0.27902203       1.52573224       6.87935819
Pb       1.11299013       2.79354257       2.05420091
Se       2.51180511       3.72118545       7.13529502
Pr      -0.85341403       5.86546808       2.70627812
Se       0.74713512       7.42312521       0.67768921
Pr       0.15480027       5.44860416       6.41806552
Se      -0.38247359       3.30169471       4.45806684
Se       1.74207952       6.83449244       4.31102095
4
Lattice="4.614207744598389 0.0 -2.0625665187835693 -0.9235846430807371 4.519952084147595 -2.06268048286438 0.0 0.0 6.189206600189209" Properties=species:S:1:pos:R:3 pbc="T T T"
Tb       4.40782302       0.96965464      -2.01047647
Y        1.63853972       3.22947456      -2.01048587
Y        3.02262103       2.10005742       1.08354659
Y        0.25571900       4.35992408       1.08481474
12
Lattice="4.382045745849609 0.0 0.002150971908122301 0.0028205408253372775 7.021022706923046 0.9048922061920166 0.0 0.0 8.86154842376709" Properties=species:S:1:pos:R:3 pbc="T T T"
Nd       2.06974549       3.32833977       1.08414900
In       2.06875963       0.34992636       8.55765187
Nd       4.26003294       4.20238517       3.96529212
Nd       4.26208192       5.62806003       8.14153426
Nd       2.06509907       0.57430474       3.96848314
In       2.07175621       4.28135046       6.44975194
Nd       4.26104307       2.07726776       6.92816441
H        2.06560694       5.40824588       3.62855323
In       4.25887233       0.78541486       1.53077820
F        4.25929232       4.37625881       1.52621642
H        2.06973808       2.92566041       3.33033287
H        4.25589877       1.76544936       4.60517227
14
Lattice="5.682736873626709 0.0 -1.6962934732437134 -0.0016259297643313525 6.0107066816387515 0.005466162227094173 0.0 0.0 6.898068428039551" Properties=species:S:1:pos:R:3 pbc="T T T"
Sm       2.87948014       2.04520448       3.13901620
Rb       0.20477626       5.04993032       4.79127098
W        0.27596968       2.04351203       6.64983817
N        1.61587781       2.04413112       5.24567878
Sm       5.43217255       5.05277388      -0.37485903
Hf       3.33190801       2.05206868      -0.30134346
W        2.83732972       5.05382073       1.29615634
N        4.56378035       0.70310986       5.10793416
N        3.94884585       0.57901004       1.13779290
N        1.67983006       5.04929511      -0.06117061
N        4.56722895       3.38479648       5.11332199
N        1.83511165       5.04641036       2.75212181
N        1.42597814       2.04501174       1.19098347
N        3.94668213       3.51154599       1.13081975
10
Lattice="7.973734378814697 0.0 4.165271282196045 2.9246510293186803 7.41133139694336 4.155094146728516 0.0 0.0 9.778027534484863" Properties=species:S:1:pos:R:3 pbc="T T T"
Cs       7.54042016       3.33556067       8.92389374
Cs       2.69777512       5.46402108       8.50039467
I        7.66358484       0.40282555      11.54737820
I        3.99957863       2.34502714      10.32489995
I        6.91019354       1.00600560       5.89591040
K        4.80156700       6.89204658      14.21889343
Sm       5.36972516       1.85926649      13.09762697
I        6.39851888       6.80417814       7.69133263
I        3.40642732       3.61086156       5.00103457
I        6.95526359       4.51772901      12.63329130
4
Lattice="117.35325622558594 0.0 -214.9910888671875 29.746520929931645 25.330985975146504 38.33027267456055 0.0 0.0 47.61745071411133" Properties=species:S:1:pos:R:3 pbc="T T T"
Rb      33.55672188      17.63803121      24.65474062
Br      43.81869704      10.30787394      -3.70442261
Rb     125.20659893      21.59631182    -148.81011841
Rb      39.88039937      20.63886059      14.10294717
8
Lattice="3.7388124465942383 0.0 0.0005128385964781046 0.0023941737981870714 3.747055719346197 0.0024463245645165443 0.0 0.0 8.620562553405762" Properties=species:S:1:pos:R:3 pbc="T T T"
Y        0.57347598       2.08022255       5.29399512
Te       2.44213435       0.20524847       2.81206492
S        2.44187355       0.20724080       6.63607014
O        0.57338815       0.20768190       1.07849863
O        0.57400539       0.20384490       3.90325934
O        2.44180982       2.07670313       1.07172177
O        2.44519862       2.08074025       3.89893009
Te       0.57317564       2.08102301       0.12243106
12
Lattice="4.254599094390869 0.0 -0.5030989050865173 -1.7542255391443016 7.472693783445677 -1.8164743185043335 0.0 0.0 9.228867530822754" Properties=species:S:1:pos:R:3 pbc="T T T"
Nd       1.82242209       6.50948678       2.62755593
Nd       1.54889544       3.48174587       5.43067940
Nd       0.61476070       3.93644655       0.74305286
C       -0.48834382       6.11955499       1.52018910
Nd       2.07001158       0.95836120      -0.12556366
C        3.33852713       0.56808300       2.04338792
Nd       2.42897177       6.01936464      -1.03466179
C        1.35806128       3.94703655       3.08429148
Os       1.32362834       0.55996656       2.72165332
Br      -0.46371677       5.76155535       5.75148883
Br       3.86313493       1.64439282       6.55271272
Nd       3.44123972       2.83794887       2.77217778
6
Lattice="4.001710891723633 0.0 2.6496403217315674 0.3509158469386828 7.178865476091704 2.6774892807006836 0.0 0.0 9.042823791503906" Properties=species:S:1:pos:R:3 pbc="T T T"
I        2.61473980       0.45381039       4.21863271
I        0.66636820       5.73641690       7.89211148
O        1.49944328       1.89484436       7.92645774
O        1.96439719       1.64091949       9.00311413
I        1.12377593       5.43132739       3.31366452
S        3.01201405       4.20582606      11.53253541
10
Lattice="15.93012523651123 0.0 16.28294563293457 12.22105606606277 7.990650600146904 16.981292724609375 0.0 0.0 20.659881591796875" Properties=species:S:1:pos:R:3 pbc="T T T"
Pd      16.78718309       4.08693774      21.82110416
Pr       7.82911791       4.29038831      14.19311159
Pr      10.67102137       0.42988454      13.51511277
As      13.96027231       7.85230749      21.30297881
H       17.64408247       4.45182148      33.47917225
Pd       7.75902639       4.55875917      22.47158772
H       21.93088704       6.08681461      35.57206842
Pd      22.55297000       7.79627840      39.91074098
Pd       2.34632891       0.04037483      16.13719776
Si       9.34221211       2.32422610      24.36749557
14
Lattice="5.173630237579346 0.0 0.6592034697532654 1.5486147312629583 5.357684836957808 0.9186782240867615 0.0 0.0 5.897848606109619" Properties=species:S:1:pos:R:3 pbc="T T T"
Ir       4.42907499       1.72538670       1.36298491
Ir       5.27279144       4.63927220       5.08624097
N        3.20220399       5.14997048       5.17003531
Li       3.55523327       4.98077144       1.91658485
Li       3.10130677       2.34727284       3.97250049
O        1.45771743       1.04634003       4.08535265
O        5.09182839       3.20907650       4.03091115
O        3.69041652       0.85974390       5.64008607
O        3.76470100       0.48499185       2.67042807
N        5.36036122       3.47139178       6.71067404
O        2.27545834       4.34017564       4.48141760
O        0.88939408       1.13471427       0.93201834
O        3.30447128       2.95782389       2.00866212
O        6.15203212       3.78668127       1.65798620
9
Lattice="5.748987197875977 0.0 8.939247131347656 5.921076607834749 10.2573490810048 13.388291358947754 0.0 0.0 17.828771591186523" Properties=species:S:1:pos:R:3 pbc="T T T"
Cs       6.77159997       7.44955438      21.89628835
Cs       1.80770205       2.62840315      16.21195095
Cs       6.24709468       2.46985236      15.11998812
Sm       6.25535696       7.51841230      30.18970303
S        5.75602369       9.83559509      26.70449461
S        1.56105400       0.17726775       8.20360287
S        9.56818496       6.64066121      20.00703396
S        6.10398194      10.06821876      30.60395356
S        8.00539031       6.02904568      28.97960887
12
Lattice="4.152520656585693 0.0 -0.8993062376976013 -0.2920464835459027 8.343967842458275 -1.7740522623062134 0.0 0.0 9.538183212280273" Properties=species:S:1:pos:R:3 pbc="T T T"
Nd       3.90995718       1.98211607       8.21802089
Se       3.23000460       1.37591375       5.27766781
Si       1.61040632       8.32509829       7.31439577
Nd       3.75416241       6.32804800       7.28299463
Nd       0.96870758       7.66247930       4.53977520
Se       0.42809428       2.77744867       2.45641353
Nd       2.41541845       4.83794852       1.49912433
Nd       2.54677556       0.65250628       2.32077714
Nd       1.09750671       3.46502514       5.35596556
Se       0.28441110       6.93181634       1.58169506
Se       3.08713039       5.53219978       4.40390208
Se       1.75699896       4.15719106       8.19948503
6
Lattice="118.00977325439453 0.0 578.781494140625 224.938489740347 22.934389513073853 588.4833374023438 0.0 0.0 567.9998168945312" Properties=species:S:1:pos:R:3 pbc="T T T"
Ba     255.55498511      19.44066042    1335.94821571
I      202.44819105      17.81750151     971.19878743
Rb      79.83094528       0.99896729     927.74444863
Rb     251.19251832      18.08801501    1175.94610831
Cd     198.27873109      19.23150044     677.87223996
Li     241.14488238      19.97921179     765.51979396
8
Lattice="4.386873722076416 0.0 -0.007371264509856701 -2.2024207269907947 5.227498058261386 -0.02018200419843197 0.0 0.0 7.987144470214844" Properties=species:S:1:pos:R:3 pbc="T T T"
Dy      -0.29338387       3.88775993       4.93760330
Cd       1.90243285       1.77130013       6.51839184
Ag       1.90610904       0.27545278       0.95965407
Cd       1.89971495       1.77063443       3.37646999
Cd       1.89895660       4.55143831       7.35331564
Ag      -0.28875850       0.82207004       4.95254095
Dy      -0.29028957       2.43609895       0.95589998
Cd       1.90112027       4.55178167       2.50744012
4
Lattice="4.276095390319824 0.0 2.1227779388427734 1.607130941377477 3.9632684903312896 2.1223130226135254 0.0 0.0 5.364245414733887" Properties=species:S:1:pos:R:3 pbc="T T T"
Pr       1.22150979       0.11842550       5.15124083
Pd       2.50554956       0.98297573       2.56180484
Cd       4.22897221       2.14418097       4.45349786
Ag       1.52727296       3.20472421       4.52462015
12
Lattice="29.91446304321289 0.0 855.9354248046875 38.38968650517381 0.5923759542836007 797.1538696289062 0.0 0.0 933.3055419921875" Properties=species:S:1:pos:R:3 pbc="T T T"
Rb      16.80354860       0.19477812     603.25193183
K       27.42281119       0.27136926     882.36786015
Rb      45.67149892       0.48057984    1424.00225694
Rb      18.72097371       0.01781038     999.88224194
Rb      32.56205630       0.05563831    1520.71799201
Se      46.27098802       0.41560190    1453.28913530
Rb      29.69731502       0.40426570    1406.30480693
Rb      29.19054833       0.41786980    1029.02112049
Rb      31.33783675       0.09881093    1567.29311328
Rb      46.80460264       0.36383229    1493.10904138
Rb      33.12513866       0.37955260     810.51714027
Ir      27.98088535       0.05565360     823.90242946
6
Lattice="4.420494556427002 0.0 1.4327747821807861 1.980825001275121 3.9530115086386295 1.4324473142623901 0.0 0.0 7.561877727508545" Properties=species:S:1:pos:R:3 pbc="T T T"
Ho       5.46238108       3.93693672       5.53802417
Ni       0.94880980       1.14988059       4.39068087
Tl       1.77114114       1.65643069       1.83985641
Ho       4.55187318       0.64358732       8.34384378
Tl       2.81911276       2.30407394       6.15495545
Ni       3.72799784       2.86602462       3.35300931
10
Lattice="3.5829501152038574 0.0 0.001560543547384441 0.0016725966361926992 4.48698584853459 0.008166520856320858 0.0 0.0 13.031017303466797" Properties=species:S:1:pos:R:3 pbc="T T T"
Ho       2.34444910       1.29360955       5.68520321
Tm       0.54747965       3.53808119       4.51086773
Tm       2.34278811       3.53449663       1.66827501
Tm       0.55008595       1.28973387       8.78077501
Ho       0.55147299       3.53014208      11.69630290
Cu       2.34176488       3.53203506       9.61237542
Cu       2.34387930       1.29013263      11.26806944
Cu       0.55086177       1.28673621       0.43094470
Cu       0.54967759       1.29782168       2.90120725
Cu       2.34040434       3.53790816       7.21886926
14
Lattice="23.180330276489258 0.0 107.03587341308594 23.679887230400706 8.08618554518193 130.23513793945312 0.0 0.0 124.1263656616211" Properties=species:S:1:pos:R:3 pbc="T T T"
Rb      34.83759215       7.06657825     281.41708318
Hg      21.86676732       2.23793763     121.02399973
Pb      32.88815720       7.81478008     273.01353508
Rb      22.54264297       0.56577905     202.24804335
I       25.85930458       7.93015266     205.64064757
Rb      42.06001110       6.54947919     266.51124227
Ti      29.52693179       5.94110965     191.56279001
W       25.58543522       4.57672113     206.58504805
Rb      11.85064292       2.30300535      83.97507375
Rb      17.34068381       0.80326450     154.51054322
Rb      33.07819547       4.22560629     254.61593201
Rb      24.37139411       3.21189811     178.92107407
Rb      19.37205242       2.71664792     194.89436648
Rb      26.22495880       3.54008737     213.66976492
11
Lattice="12.841675758361816 0.0 25.91349983215332 13.970873038660443 7.630015882532685 30.25792121887207 0.0 0.0 37.35861587524414" Properties=species:S:1:pos:R:3 pbc="T T T"
K       19.64856652       5.51557274      72.39951013
Pb      22.37891529       7.58499086      56.35348559
I        2.70703771       0.50660280      10.78281381
Cs       6.63569790       2.02124805      38.21913110
Pb      12.25702501       5.48544964      49.89199430
Te      12.04978627       5.45934183      30.00074568
Cs      13.21216159       2.96106203      64.34771320
Br      19.83891555       5.92123541      62.28256032
Br      12.69320001       5.53819826      43.16007698
Pb      14.64822403       3.40958767      46.80167868
Au       5.64022727       1.19081426      44.97114775
8
Lattice="6.59306526184082 0.0 -2.193678140640259 -3.1138482056186803 5.888058580012024 -2.2470226287841797 0.0 0.0 6.96138858795166" Properties=species:S:1:pos:R:3 pbc="T T T"
Ni      -1.18899582       4.97149581       2.27011786
Pd       4.19382442       1.76823472       2.99422840
Br      -0.83114486       3.57733541       4.05476034
Br       2.70712988       2.51198746       1.10608101
Br      -0.30457282       1.84428312      -0.42756733
Br       1.73357936       0.58693431       2.75116755
Br       0.87645388       5.85099275       2.71365627
Br       3.39218728       4.31014483      -0.64704098
12
Lattice="7.9089765548706055 0.0 -3.5798189640045166 -2.685655209911147 7.680242384239613 -3.178215980529785 0.0 0.0 10.363142013549805" Properties=species:S:1:pos:R:3 pbc="T T T"
Rb       4.56534759       6.36353976      -1.10291330
I       -0.63243598       5.22175598       0.06962334
I        3.04615920       2.84059334      -0.20267210
Rb       5.39694594       1.50360016      -2.97972359
Rb      -0.25794728       3.44383526       7.14094728
Ce       2.41820245       0.12240493       1.38830032
I        0.13298537       1.55146807       3.00754467
I        2.04636295       0.83214884       6.59224322
Rb       2.27617358       4.40159613       3.08409073
I        4.71644163       1.24906843       3.32478349
I        1.85162977       6.30514329      -3.71606226
I        5.30525094       6.50622096       3.09700191
6
Lattice="3.9479169845581055 0.0 -1.04396653175354 -0.28768147203103395 3.938275138718311 -1.0445564985275269 0.0 0.0 8.094385147094727" Properties=species:S:1:pos:R:3 pbc="T T T"
Ge       1.19399263       0.66107171       5.72838482
Y        3.32373978       2.95251881       5.83208288
Y        0.43307609       1.96735179       2.82739226
Ge       1.96412332       3.61259968       0.63408425
Pd       1.79008640       1.30562222      -0.07396228
Pd       2.85118819       0.31847160       3.97106352
10
Lattice="3.008975028991699 0.0 -0.002542582107707858 -0.007844378034794677 7.36631786382734 -0.01001017726957798 0.0 0.0 7.371842384338379" Properties=species:S:1:pos:R:3 pbc="T T T"
Ge       2.73442771       6.10438336       5.66964760
Li       1.22830227       7.25445200       0.83370190
Pd       1.23096094       4.62947337       7.14484853
Ge       2.73735602       2.42030853       7.05467604
Pd       1.23323008       2.50964545       1.89190458
Ge       2.74075818       1.04003554       3.37496023
Li       1.23173557       3.57093610       4.51736580
Pd       1.23420401       0.94514444       5.58528027
Pd       1.22973829       6.19503747       3.45991438
Ge       2.73660646       4.71827858       1.98185894
9
Lattice="8.13935375213623 0.0 33.81375503540039 -7.7511551309223705 9.562336702235559 38.75755310058594 0.0 0.0 49.3408317565918" Properties=species:S:1:pos:R:3 pbc="T T T"
Rb      -0.53824910       5.92579843      61.67989867
Rb       4.05693082       0.45035856      28.38365397
Rb      -4.92128560       8.90481981      92.61045147
Rb      -3.42101763       5.05754123      31.55700842
O       -2.75827773       9.20751970      80.77228910
Rb      -1.37327409       2.84221766      43.32765910
Ni       4.68937018       1.97659752      39.91877523
Rb       3.82413427       1.56914902      69.50027716
Te      -3.79001066       5.31582644      60.15451229
20
Lattice="8.869956970214844 0.0 -1.8477598428726196 0.3521842901930392 9.065737349147618 -1.11984121799469 0.0 0.0 9.119635581970215" Properties=species:S:1:pos:R:3 pbc="T T T"
Nd       5.08222172       3.48439644       5.29343116
Nd       4.45546138       8.82182260       0.16509547
Nd       6.39251627       8.96344287       5.67671151
Pr       7.92607358       0.66103353       1.36648495
Nd       1.01321736       8.45761074      -0.86963102
Nd       8.35787731       1.90287631       4.91048461
Pr       3.65828658       7.07522977       5.90773444
Pr       3.68459758       3.10690118       2.16830058
Pr       2.44368304       0.53682748       4.52307059
Nd       7.38663920       4.09777616       2.27354054
Pr       3.14411513       5.22257344      -0.58525390
Y        1.47114031       6.39729675       2.13996440
Nd       5.00270677       6.42985344       2.84989610
Pr       0.45139708       3.14448403       0.94909850
Nd       8.00036367       5.45397453       5.69660948
Pr       6.01196313       2.90142468      -0.60062378
Nd       1.71203930       4.19904396       5.14288905
Pr       8.69009543       7.53382038       3.02322049
Nd       6.78493707       6.48333504      -0.48063542
Nd       2.87965582       1.70262306       7.73278749
6
Lattice="4.347155570983887 0.0 0.00994242075830698 0.010266347718741875 4.311006719525224 0.005590680055320263 0.0 0.0 7.424541473388672" Properties=species:S:1:pos:R:3 pbc="T T T"
Pr       0.79832929       4.26672780       5.30971299
Ga       2.97170966       4.26711863       0.37971239
Ga       2.97338923       4.26788719       2.84360475
Ge       2.96798718       2.11154846       6.52210373
Ga       2.96757023       2.10990035       4.02975085
Pr       0.79368722       2.11019996       1.56607364
12
Lattice="3.8684897422790527 0.0 -0.011363182216882706 -1.9537179581701025 7.034353078102667 0.0778372511267662 0.0 0.0 11.042182922363281" Properties=species:S:1:pos:R:3 pbc="T T T"
S        3.31335199       0.12956766       0.54138685
Hf       1.36972932       2.08665169       5.74934517
S       -0.56784636       3.25183365       9.79184602
Hf       1.37502055       1.71473775      10.90882453
S        1.36255694       3.14981840       3.53182669
S        1.37693990       0.91252795       8.50328846
S       -0.57223866       3.35764989       0.84325460
Ba      -0.57112370       5.34345213       3.33469199
Ba       1.36579610       5.56321277       8.77540953
S       -0.56940330       3.66573000       6.44410716
S        3.30958171       0.81590181       4.03549326
S        3.30748244       0.21574313       5.95893437
10
Lattice="4.493578910827637 0.0 -1.1204255819320679 -0.36764606105609987 8.942569662859404 -1.4988760948181152 0.0 0.0 9.616262435913086" Properties=species:S:1:pos:R:3 pbc="T T T"
Rb       2.53001779       3.57289969       8.09872338
Ga       3.84774445       1.80225105       3.79056651
Rb       0.94354684       0.92480941       1.71798559
Rb       1.73089585       4.64959611       4.89156164
K        2.06356498       8.10828348       6.21862218
Ga       3.37455837       3.59629574       1.89693708
Au       1.78585482       1.14378082       5.10705209
Au       0.33185392       6.25477229      -0.76828211
K        3.23234114       7.04580134       1.32189903
Au       0.90428601       4.43960993       1.56204669
18
Lattice="4.841847896575928 0.0 -0.05952280014753342 -2.408123294907426 9.078138485817686 -1.815651297569275 0.0 0.0 10.110055923461914" Properties=species:S:1:pos:R:3 pbc="T T T"
Bi       1.64454706       7.96659191       1.47634827
Sr       4.03979563       0.36556068       9.87877998
Sr       4.04219062       1.18447904       5.74066981
S        1.63983769       5.25415729       1.68543856
S       -0.78173023       8.07229077       2.59456649
Bi      -0.79585150       6.68578408       6.66074928
Sr      -0.79380497       5.13487738       3.73592957
S        1.62622973       3.52945710       5.01380180
Sr      -0.78530861       5.56696621      -0.26879924
Ga       1.62464496       2.88529796       1.73437876
S        1.63608055       2.64288415      -0.40650611
S       -0.79431421       4.21145071       7.26438534
S        1.61896008       6.52048422       5.07315756
S       -0.77895720       8.41483958      -0.58449361
S        1.61258954       0.62986465       7.79346286
S        4.04574778       2.45846780       2.51122253
S        1.63003595       6.67509142       8.14888290
S        1.61949631       1.64411699       4.27186223
5
Lattice="37.342506408691406 0.0 304.5589599609375 34.109838027049584 27.524085874691895 389.00189208984375 0.0 0.0 319.1395263671875" Properties=species:S:1:pos:R:3 pbc="T T T"
Mn      62.27196898      25.27475375     852.30620546
Hf      37.07231745       3.16147757     372.46816853
Sm      50.04774305      15.09160470     625.80367566
Se      42.18451895       8.76968477     545.54705705
Rb      36.63310723       1.87500930     311.70452639
12
Lattice="6.095915794372559 0.0 -1.3631725311279297 -0.6106117732287483 6.655101051545919 -2.72473406791687 0.0 0.0 9.588554382324219" Properties=species:S:1:pos:R:3 pbc="T T T"
Tb       2.86032943       4.41051911      -2.52759206
Nd       4.91498135       0.53280217       1.88315407
Y        3.15637374       4.97857507       3.59172255
Tm      -0.03748848       2.74558199       8.41362936
Y        4.60832681       3.86377332       0.51928363
Tb       3.17046085       1.08260087      -1.17438233
Tm      -0.33936124       6.07186831      -2.53175223
Nd       1.70685510       2.19180137       1.87055980
Y       -0.04721879       6.64246259       3.59357766
Y        3.46045415       1.64506371       4.94758889
Y        1.40239419       5.51102350       0.51546228
Y        0.25705781       3.31677802       4.95830910
11
Lattice="5.241126537322998 0.0 -1.669132113456726 0.031249784190708056 6.51774258301836 0.06022937223315239 0.0 0.0 9.064772605895996" Properties=species:S:1:pos:R:3 pbc="T T T"
Pb       1.28294109       3.17080442       7.43573389
Cd       4.94464369       5.57107141       0.79058694
Pb       4.50219510       2.08403777      -0.58802159
Hg       3.16710022       4.41968973       4.28397319
Hg       3.54440526       1.44623173       5.48002654
Cd       1.63782286       0.00215580      -0.51287481
Pb       0.69743509       6.16151332       5.57232249
Pb       2.56173115       0.89040660       2.40200436
Hg       2.23875189       4.01855594       1.36852297
Pb       0.26070634       2.80330863       4.22944890
Cd       4.04696816       5.14718312       7.04012164
9
Lattice="6.081971645355225 0.0 0.004416602663695812 -3.029056574713935 5.273375087336926 0.008576038293540478 0.0 0.0 6.5129194259643555" Properties=species:S:1:pos:R:3 pbc="T T T"
S       -2.39997002       4.69520317       2.99349876
Zr       1.56386416       4.69915855       1.53168674
Ti      -1.48107096       2.94042495       1.52700909
Ti       1.55726540       1.18256923       1.52330957
S       -0.42640668       1.25650358       0.05634429
S        0.50786264       2.86235441       2.99269527
S        2.61748391       2.86154882       0.06160321
S       -0.55405549       4.69704130       0.06491354
S        3.54297109       1.26139381       2.98581769
11
Lattice="3.6364858150482178 0.0 0.008771789260208607 0.014828314638492266 7.760733266604405 -0.5264740586280823 0.0 0.0 9.803569793701172" Properties=species:S:1:pos:R:3 pbc="T T T"
Tb       2.16113168       6.28666857       0.65964479
Tb       2.15581482       3.25813818       7.81763543
In       0.33276195       0.36910168       3.32995008
In       0.33848027       3.26497783       4.86389703
Ir       0.33779677       4.02628384      -0.00981981
Tb       2.16184259       5.97366530       4.66463889
Tb       2.15503878       2.95578387       2.01943612
In       0.33212695       1.11078280       9.66996903
In       0.33389344       0.73521819       6.49982922
In       0.34356658       5.96385453       7.61874897
Ir       0.34217620       5.21372227       2.67874195
4
Lattice="4.547570705413818 0.0 2.6252236366271973 1.5133624288218073 4.289786697483255 2.6220781803131104 0.0 0.0 5.252535343170166" Properties=species:S:1:pos:R:3 pbc="T T T"
Na       1.88525757       1.85595780       6.79065278
Cd       3.40059778       2.92895997       4.16377570
Sm       4.91705123       4.00240665       6.79096408
Hg       0.37062208       0.78436757       4.16677180
12
Lattice="3.9700098037719727 0.0 -0.005813255440443754 -0.012099568422681735 5.205493216435942 0.29608190059661865 0.0 0.0 8.137803077697754" Properties=species:S:1:pos:R:3 pbc="T T T"
Fe       1.53768642       1.87352479       5.52846024
Tb       3.51984331       4.09459253       1.19178797
Fe       1.53407252       2.86476692       2.98262468
Fe       1.54200054       0.75287568       1.51847863
Fe       3.52728870       0.89845216       6.46315284
Mn       3.52095971       3.51116562       6.68637644
Co       1.54108842       2.56804878       7.89752438
Tb       3.52537464       0.49823875       3.60533220
Mn       3.52598468       1.56554535       0.59240550
Co       1.52924572       5.18441647       7.69790980
Fe       3.52035798       2.98737508       4.51264914
Mn       1.53258148       4.29557963       5.56617485
10
Lattice="3.866603136062622 0.0 -0.0104873888194561 -0.024835172210523417 4.838956521368209 -2.4564778804779053 0.0 0.0 6.082277297973633" Properties=species:S:1:pos:R:3 pbc="T T T"
Mn       2.80673217       4.71533268      -0.11548593
Rh       2.81040540       3.61147180       3.52723066
H        2.82046354       1.73249892       2.88009826
Rh       0.88072632       2.95611818      -0.73462663
Mn       0.88536764       1.73683768       2.92488904
Rh       2.81717406       2.24828042       1.11634517
Rh       0.87396172       4.14450122       1.67061080
Rh       2.82204999       1.07353574       4.70356242
Mn       0.89461014       0.51744236       0.44618324
H        2.81288640       2.89792887      -0.76064056
9
Lattice="74.46900177001953 0.0 342.80450439453125 74.20025888149894 27.146960733548873 329.355224609375 0.0 0.0 325.64453125" Properties=species:S:1:pos:R:3 pbc="T T T"
Li      85.65613896      17.65409968     643.88186887
Rb      68.03239069      19.11126123     307.69874555
Ru     107.55965936      16.50136140     610.83966066
Pr      75.73865942       1.63814486     440.93657025
Pr      93.94449240      26.42981092     697.07999898
Na      55.65335886      19.38532599     384.78146240
Sb      53.30733908       9.56733260     456.41564794
Sn      14.57973405       3.68210319     317.72146683
Rb      38.75945472       6.94091617     471.61459033
18
Lattice="12.855864524841309 0.0 201.6435546875 -2.0030090417589728 5.801109616271414 214.43548583984375 0.0 0.0 214.73428344726562" Properties=species:S:1:pos:R:3 pbc="T T T"
Sm       8.60736071       3.09900850     392.58982332
Rb      -0.09997832       5.07122622     307.70995199
Rb       9.25351489       0.34805190     326.02602698
Rb      11.26948316       4.08894679     552.61723321
I       -0.12955860       4.88097426     238.47022658
Rb      11.62442626       2.47468219     436.13344869
Rb       8.83533093       5.20033546     539.31349232
Rb      11.81361556       1.92631323     479.50237232
Zn       6.64714872       3.93040880     275.88771431
Rb      -0.89954036       4.64425767     200.42461824
Rb       6.14069868       5.45078340     482.06394202
Na      11.26360069       4.15824733     414.87390041
Rb       5.05780701       2.14027173     177.71512229
Cs       6.86948390       1.53082455     327.23180914
Rb       1.28711457       0.57947790      45.26942117
Rb      11.31519435       3.00159869     357.28826469
I        0.12088545       0.56933612     236.79773170
Zn       8.06707296       4.09356114     493.61898209
10
Lattice="4.954895973205566 0.0 0.3139617443084717 2.12853856542658 6.309489699780251 -0.052531708031892776 0.0 0.0 8.417667388916016" Properties=species:S:1:pos:R:3 pbc="T T T"
Ba       5.55231921       4.17450878       1.99851306
Al       3.80676872       5.29565121       7.54183120
Ba       2.57773020       1.08723966       4.42661361
Al       2.54307790       4.69377907       5.00646772
Al       1.58186640       2.63172904       7.26893833
Al       3.09605884       1.38253790       1.06333229
Al       0.63573943       0.57257487       1.12147780
Al       6.38497119       6.25067648       7.25641378
Al       5.03592940       3.88968507       5.37158300
Al       4.05861485       2.62337152       7.41475787
4
Lattice="4.148228645324707 0.0 2.3962526321411133 1.3840312473885767 3.910218118071419 2.3959903717041016 0.0 0.0 4.790733814239502" Properties=species:S:1:pos:R:3 pbc="T T T"
Tb       3.46554690       3.34802470       4.48592675
Lu       0.69827479       1.39229521       4.48562264
Ir       3.46409091       0.41528102       4.48771671
Ru       2.08215027       2.37030399       6.88131919
11
Lattice="42.819358825683594 0.0 989.9618530273438 -42.48680970566465 83.42254018357546 877.5201416015625 0.0 0.0 1104.004638671875" Properties=species:S:1:pos:R:3 pbc="T T T"
Li       7.57494007      59.51683295    1967.87374580
Rb     -35.77034396      76.51980046    1749.31575941
Sb      18.42510037       1.14311427     995.42012116
Rb     -10.60805273      57.61393148    1572.22502136
Pt     -13.41972124      75.36604633    1708.80158971
Rb      -5.84455746      65.77306502    1797.65020625
C       19.58582493      25.67560772    2007.51385936
In     -13.30673761      62.44268040    1406.68394711
F        8.71416693      54.60409572    1930.54731842
Li       1.91538667       9.01872904     467.80309535
Rb       6.38427360      20.09963826    1274.96324035
12
Lattice="6.284158229827881 0.0 0.3029462993144989 0.7495199314384066 5.3779745743247105 -0.28832805156707764 0.0 0.0 6.045217037200928" Properties=species:S:1:pos:R:3 pbc="T T T"
Si       6.30594775       4.09652683       5.58888703
O        6.58979561       3.94404557       1.14912819
Mn       1.43764381       4.71713076       2.30097004
Hg       1.92254671       0.86812189       0.58828762
Si       5.13650862       1.44527495       4.45563277
O        4.95073406       0.23249760       5.60568112
O        0.26414797       1.19736689       3.36153916
O        3.81851498       1.42705508       3.49565593
Hg       4.13317458       4.16869020       2.07365315
Mn       2.03339412       2.00941937       4.12395503
O        1.29430543       3.86724189       4.25770778
O        5.16547726       2.91766607       5.22221815
4
Lattice="255.08290100097656 0.0 662.7479858398438 85.3035260270035 27.011030849225158 696.14208984375 0.0 0.0 763.2916259765625" Properties=species:S:1:pos:R:3 pbc="T T T"
Er     310.79833022      24.19107174    1982.94369359
K      247.15076994      18.93167299    1052.38880188
Zn     259.09338131      11.87830732    1459.16986228
I      285.09393677      14.26101278    1711.28091989
20
Lattice="8.173148155212402 0.0 -0.34757640957832336 0.6274033563701382 8.399668105338131 -1.7528183460235596 0.0 0.0 11.396444320678711" Properties=species:S:1:pos:R:3 pbc="T T T"
Na       1.80424213       7.40199193       8.69968026
Na       1.33303463       4.53200043       1.54327463
K        5.35706402       4.63966920       2.01093706
Na       6.99010203       8.20777744       1.48607034
Na       3.36489178       1.70047407       3.25180247
In       4.06968702       7.18081721      -0.20968257
K        8.11346483       2.82961910       4.28038673
Na       7.71169654       1.01654308       7.36762397
In       0.83522297       4.22446498       8.28130457
Na       2.57122316       5.75439399       5.80270105
Na       7.15708570       6.39988443       4.93408500
Na       2.71013689       1.98173491       7.01993271
Na       3.27151348       3.93158033      10.30102820
Na       7.88364088       2.23262176      -0.58734847
Na       2.65821207       7.43157238       2.93745253
Ag       0.89607151       0.11299448       1.96261440
K        5.55983246       4.16962828       7.55329039
Na       7.39859592       6.19557290      -1.12952898
Ag       4.87655115       0.38121283       5.90174750
K        4.75808366       0.14825119       9.68782947
9
Lattice="3.989133596420288 0.0 -0.000395825132727623 0.0030236396420890727 5.918984117689772 -3.409860372543335 0.0 0.0 6.83461856842041" Properties=species:S:1:pos:R:3 pbc="T T T"
Tb       3.07857440       5.50887933       2.31409663
Tb       3.07520214       2.01201786       3.09084590
Tb       3.07805198       4.43965157      -1.10768781
Ni       1.08255960       3.47373851       1.13564276
As       1.07997063       0.04031081       3.70454512
As       3.07637913       2.01159661       0.28980953
Ni       1.08154965       0.55483182       1.13123845
Ni       1.08247768       2.01359240       5.43767539
As       1.08320147       3.98736826       3.70975956
12
Lattice="5.487390518188477 0.0 -0.006632647942751646 -2.749532058499881 4.751308819867825 -0.0031380984000861645 0.0 0.0 8.281036376953125" Properties=species:S:1:pos:R:3 pbc="T T T"
Y        4.74555161       0.07359469       6.08104366
Y       -0.74601640       3.24050864       4.99683928
Ni       0.50127810       0.79071684       3.44692128
Ni      -0.75173443       4.67521268       7.63222387
Y        4.74317858       0.07464163       0.86399988
In       1.99906819       1.65793197       1.39686195
Y       -0.74494622       3.24111497       1.93533468
Ni       0.49720070       2.52319004       7.63339064
Ni       3.49836711       2.52758813       7.63030699
Y        1.99886150       1.65665289       5.54344537
Ni       3.50167734       0.79019745       3.44775224
Ni       2.00073883       3.39058032       3.44543925
18
Lattice="6.4063262939453125 0.0 -2.4227960109710693 -1.114346798323475 11.3936558095828 -4.628232479095459 0.0 0.0 11.802581787109375" Properties=species:S:1:pos:R:3 pbc="T T T"
Tl       0.16438003       5.32491679       4.15577820
I       -0.53637908       6.31645293      -1.28220469
I       -0.09968427       2.23034596       2.33171742
I        4.96971229       3.48588884       4.39123509
Tl       4.69726989       9.18685459       4.14873603
Tl       3.16851081       2.43034918       1.33553875
Zn       0.65661713       9.14009414       5.15043653
Hg       2.37149493       3.63852906       8.45951746
Tl       4.84156295       9.81718722      -4.39274380
I        3.05968361       5.81375585       1.69092454
I        2.04973762       7.24287555       6.47531040
I       -0.10785326       8.49565018       2.65006362
Hg       5.64927193       1.87947264       7.54718977
Tl       2.90801485       6.76726632      -1.54189591
Ag      -0.33601165       4.14139048       0.35877548
I        2.74486760       0.22000117      10.06265870
Ag       4.33546120       0.89112070       4.11734119
I        2.19622033      10.19807487      -1.90548892
4
Lattice="3.926598072052002 0.0 0.0020903050899505615 0.0026206913356910436 5.9910272588388365 -0.0024756314232945442 0.0 0.0 5.98671817779541" Properties=species:S:1:pos:R:3 pbc="T T T"
Y        3.10543928       1.21366215       4.77060810
Li       3.10526085       4.22410906       1.77551269
Ca       1.14203288       1.22317520       1.77705931
Ca       1.14292342       4.21616516       4.76859922
9
Lattice="4.801138877868652 0.0 -1.226860761642456 -0.4726395668476549 6.662999082864563 -2.4659688472747803 0.0 0.0 6.817868232727051" Properties=species:S:1:pos:R:3 pbc="T T T"
Ce       3.15720010       0.87003889       3.69463328
Co       3.92680816       0.22922850       0.64418506
Ce       0.69480343       6.15112356       3.94563344
Pb       2.84789736       4.19485933       2.44408301
Pb       0.96022526       2.85869521       5.25837463
Co       0.94516153       0.14840898       3.97700146
Ce       3.63241667       4.77859162      -1.01916030
Ce       0.11945213       2.28827108       1.88539753
Co       1.62429481       0.01421015       1.65811616
6
Lattice="4.417393207550049 0.0 0.0037949727848172188 -2.198780255437214 3.8292457487532556 0.0018547833897173405 0.0 0.0 6.5841064453125" Properties=species:S:1:pos:R:3 pbc="T T T"
Sc       3.06674485       0.03361798       6.56971954
Dy       3.06685215       0.03353658       3.27656709
Ir      -1.34208038       2.58339202       5.19666777
Ir       0.86159717       1.30674256       5.18506622
Ir      -1.34112692       2.58580521       1.35122143
Ir       0.85945349       1.31175815       1.35477346
5
Lattice="4.813427925109863 0.0 -0.0005166351911611855 -0.0015113289972204865 4.815517188375119 -0.001930181635543704 0.0 0.0 5.034306526184082" Properties=species:S:1:pos:R:3 pbc="T T T"
Dy       1.23047124       1.58346716       1.57786645
La       3.63655739       1.58368214       4.09492656
Dy       3.63549719       3.99096298       1.57727234
Cd       1.22836659       3.99159731       4.09591159
O        3.63634819       1.58292913       1.57693434
5
Lattice="4.109318733215332 0.0 -1.766341209411621 -0.7682382870624458 4.037953736529619 -1.7668017148971558 0.0 0.0 5.692800045013428" Properties=species:S:1:pos:R:3 pbc="T T T"
As       0.93416314       1.70978869       0.51030647
Sm       3.63072292       0.00548800       1.12137706
As      -0.01702845       3.05674096       4.00087927
Ni       1.74373623       2.68655175       2.41636207
As       2.43249460       1.02713431       4.00513284
4
Lattice="366.59979248046875 0.0 695.2302856445312 351.24086961877043 195.2877780293509 627.2138061523438 0.0 0.0 670.257080078125" Properties=species:S:1:pos:R:3 pbc="T T T"
Cr     188.32227102      16.54466719     888.60006340
Ti     474.13951399      96.40483969    1013.20864922
Se     345.85920240      52.44783441     863.21415195
Cs      60.61556871       9.82175926     286.51516039
15
Lattice="6.9662251472473145 0.0 4.0315117835998535 2.3204134757158097 6.567599131759741 4.032549858093262 0.0 0.0 8.045989036560059" Properties=species:S:1:pos:R:3 pbc="T T T"
S        4.62851440       0.26032186       8.72017859
S        2.16587217       3.44551341       4.77094458
Ca       3.39855371       1.85590242      10.77026474
Ce       8.04170826       5.13909170      10.77943150
S        5.76640244       3.47316101      10.69567858
Ce       4.55724504       5.13724088       8.76482593
Li       6.88469691       1.85505315       8.76365264
Ca       8.04227443       5.13655740      14.80112110
Ca       6.88103620       1.85366132      12.78420440
S        2.22661915       3.48926409       8.77623874
S        5.72382213       3.44573615       6.83013295
S        1.03107644       0.23296914       2.79882894
S        4.56999032       0.21969172       4.71533906
Ce       3.39805462       1.85536123       6.74502223
S        1.07177021       0.26237161       6.66134637
14
Lattice="5.4350996017456055 0.0 0.8399270176887512 0.6207856258931801 7.394138468414085 3.424034833908081 0.0 0.0 7.687130451202393" Properties=species:S:1:pos:R:3 pbc="T T T"
In       4.76866578       0.44974931       7.94124495
Zr       2.08645719       4.29547858       5.92752291
Ti       2.38542243       6.83624276       4.08779961
Zr       1.05751162       2.88591796       3.24413693
Zr       3.80114715       1.31611161       3.01577985
Ti       1.72774994       1.25118268       5.64197023
In       4.23100448       6.66593164       8.72252143
Zr       1.60256074       7.21764882       6.76877899
Ti       4.43408051       2.40874633       5.75113791
Zr       1.42535670       5.44236358       9.30175805
In       3.81216795       4.34852424       3.42856063
In       4.97267492       3.70170169       8.36600842
Zr       5.01064711       5.63988022       5.79677291
In       2.26229051       2.33896678       8.22928279
14
Lattice="101.70592498779297 0.0 1323.166259765625 103.08517456087338 23.059511835081413 1137.91845703125 0.0 0.0 1248.60888671875" Properties=species:S:1:pos:R:3 pbc="T T T"
Rb     148.54181119      18.41700340    1890.24900235
Yb     140.91192374      10.04593935    2553.42984319
V       91.57328830       6.48371122    2187.93041547
La      22.95314997       2.67875142     962.18132846
Rb      81.43353461       2.06892009    1461.03665196
K       67.64569709       5.76543255    1114.90077508
Rb     109.88819842      17.44250451    1591.04565337
Rb     113.77844259       5.81534654    1570.58075042
Bi     131.93355774      18.41260377    1756.60187455
Ag      78.68529392      13.75910383    1455.98289871
Ag      72.59585097      15.14127128    1298.54103839
Ho      70.68912249       2.29001580    1097.34842548
Sr      13.61924091       1.94234937    1124.21537808
Sr      37.97956819       3.20216035     926.27588897
4
Lattice="87.05736541748047 0.0 857.997802734375 6.356626580880286 33.85296029673405 919.8929443359375 0.0 0.0 920.5379028320312" Properties=species:S:1:pos:R:3 pbc="T T T"
Cs      41.56213575      32.38910143    1564.02357926
Rb      37.41603501      28.45879852    1179.73900221
Pr      19.24112544       1.67862400     432.83314343
Hg      39.63971061       8.51504693     783.44076057
5
Lattice="4.9035515785217285 0.0 0.012350160628557205 0.013402801921039122 4.903300564249133 0.012115763500332832 0.0 0.0 4.948153495788574" Properties=species:S:1:pos:R:3 pbc="T T T"
Dy       1.50388119       3.57511183       4.22666948
Hg       1.49649311       1.12293701       1.74614016
Dy       3.94831700       1.12160716       4.22706482
Tb       3.95518533       3.57508903       1.76149603
C        3.95488431       3.57509634       4.23305198
12
Lattice="4.211923122406006 0.0 -0.004442267119884491 -0.003472602194318232 7.5010110446270435 -0.012837336398661137 0.0 0.0 11.430686950683594" Properties=species:S:1:pos:R:3 pbc="T T T"
Y        0.65587473       6.75999473       9.85205590
Sb       2.76364216       1.11836189       8.46481845
Y        2.75945184       6.76197268       2.22057285
Y        0.65770644       2.97746692       9.86286182
Y        2.76301101       3.03317765       5.96674561
Y        2.76252867       2.96989045       2.23700058
Y        2.76097628       6.70652887       5.96273563
Sb       0.65635636       4.87275133       3.77720378
Sb       0.65678273       1.11954535       0.87964436
Bi       0.65654287       1.11315167       4.46081754
Sb       2.76185662       4.86730929      11.19258666
Bi       0.65624551       4.86408126       7.37785682
5
Lattice="3.959709405899048 0.0 -1.4759657382965088 -0.5500461239227018 3.921312914438647 -1.4764853715896606 0.0 0.0 6.059686183929443" Properties=species:S:1:pos:R:3 pbc="T T T"
Li       3.12569675       2.74344440       1.61541564
Ca       1.99950274       3.72284800      -1.41311270
Ge       0.69583642       2.22447279       1.14176774
Pt       1.42016881       0.78141531       3.09013549
Ge      -0.10819576       1.29731065       5.04003510
16
Lattice="7.308454513549805 0.0 3.846585273742676 2.644241031316226 6.812431028115906 3.843614101409912 0.0 0.0 8.879365921020508" Properties=species:S:1:pos:R:3 pbc="T T T"
Sm       4.50430391       3.99854140       7.62718558
S        5.49118598       2.17398191       5.70278239
Tl       4.50355174       3.99872412      12.06700655
Sm       6.83541759       0.59170508       7.62999444
S        2.18031354       2.38367576       7.61101972
Tl       8.15757942       3.99810895      13.99085553
Sm       8.15715434       3.99831116       9.55180120
Sb       3.18151863       0.59236233       5.70499758
S        1.87474074       2.17254651       3.79936756
S        3.18011379       5.59509163       5.70755548
S        3.51583967       5.82464206       9.55180599
S        6.82663717       5.61408595       7.64274334
Tl       3.18101495       0.59205621      10.14425340
S        5.82482438       2.40246868       9.54849336
Tl       6.83548235       0.59207393      12.06693679
S        7.13204902       5.82296222      11.45546303
16
Lattice="44.93735122680664 0.0 992.912841796875 80.78221204005422 46.31923021511921 1094.4307861328125 0.0 0.0 973.0591430664062" Properties=species:S:1:pos:R:3 pbc="T T T"
Ce     100.18674132      39.83626417    2046.01855597
Br      43.73904711      15.92935560    1206.58400755
F       25.05945563       2.95136726    1078.49536964
Hg      96.52555278      35.43859743    1752.41215671
Ga      65.81691173      15.13836215    1718.80130839
Rb      85.46141890      35.09023172    1434.51940784
Cd      37.27529007      13.09621756     855.50552608
Co      90.35099053      31.37148897    2317.74164874
Rb      67.59321129      28.29505042    1112.55073498
Rb      64.31552762      16.20115214    1371.18301644
Rb      89.80540570      37.58671139    1683.57455877
Lu     104.43632556      34.73728853    2163.87875239
Ti     113.21235192      41.99557610    2438.76287467
Sb      53.11793448       4.91591841    1678.99255220
Rb      51.85802414      16.05003611    1230.52694963
Rb      44.66877073      11.85096496    1495.70665098
12
Lattice="4.336557865142822 0.0 -0.9979004859924316 -0.46307067879092784 8.6744066549797 -2.0161244869232178 0.0 0.0 9.920258522033691" Properties=species:S:1:pos:R:3 pbc="T T T"
Bi      -0.24918762       6.77017012       7.47500713
Bi       1.11015803       8.25010039       3.45812736
Y        3.39883059       6.06275156       3.48171467
Bi       1.35153797       3.87505915       4.50434102
Dy       0.66162385       3.17231872       1.51349630
Bi       2.71018814       5.35579005       0.48709587
Bi       2.95107978       0.98708741       1.53747198
Tm       3.63068855       1.72674349       4.48985780
Tm       0.43177159       7.50998351       0.50776998
Bi      -0.02776617       2.46445241       8.44326451
Dy       2.26245735       0.27796896       8.46518336
Tm       2.03036185       4.61367690       7.45627844
10
Lattice="4.365521430969238 0.0 -0.0226465854793787 -0.0003002101341653827 6.935285084902495 -1.9586395025253296 0.0 0.0 8.630274772644043" Properties=species:S:1:pos:R:3 pbc="T T T"
Cs       3.81764570       1.01195438      -0.03320601
H        1.64874989       0.20362224       2.42117465
H        3.83827530       2.56878462       6.33097313
Cs       1.65444799       4.39041381       6.43457663
Ba       3.83742512       1.52479510       4.13108982
H        1.65125856       1.71464004       2.24451618
Ba       1.65146313       4.76417651       2.06593013
H        3.83586207       4.26584774       3.69430499
H        1.65650257       0.29082909       5.36054696
H        3.83001603       4.17594359       0.50324545
5
Lattice="3.9063162803649902 0.0 0.003821577876806259 0.004605772771671614 3.7910812533637586 -0.0016858738381415606 0.0 0.0 3.792525291442871" Properties=species:S:1:pos:R:3 pbc="T T T"
Ni       1.13327385       2.22477000       0.39113971
Ni       1.13185781       0.32864028       2.28938497
Ru       3.08550229       0.32936419       0.39458517
Cu       3.08678001       2.22337828       2.28900185
N        1.13223392       0.32832268       0.39038692
10
Lattice="18.71158218383789 0.0 79.24988555908203 -0.9233295910193605 2.6835839654863065 88.642333984375 0.0 0.0 102.6326675415039" Properties=species:S:1:pos:R:3 pbc="T T T"
Ag       2.48321889       0.02800137     108.58541181
Rb      14.81040512       1.41856850     130.49665888
Ir       3.67945645       1.01035404      51.22420268
Rb      16.73532514       1.30134008     152.24208849
Rb       4.39576755       1.82350934     112.82478537
Rb      14.15486346       2.27463212     170.02934916
Rb       3.82165888       0.03951536      91.67149063
K       16.49771964       2.56279257     251.92954585
Ga       3.02429560       1.59964946     151.86035694
Ga       2.61217852       1.53308313     157.95944686
10
Lattice="29.606122970581055 0.0 298.6048278808594 22.74190329305645 21.062514654581854 236.2999267578125 0.0 0.0 209.3879852294922" Properties=species:S:1:pos:R:3 pbc="T T T"
S       19.33191392      11.27680325     309.04993026
Rb      11.65358864       6.00763555     213.27205073
Rb      38.91459514      14.92142506     526.23756891
Sn      28.32763208      16.43155666     402.24395510
Tb      26.13247099       1.41680450     405.27098031
Cd      46.03130492      18.22836300     554.75896641
Er      45.28902581      19.13974161     671.60063972
Rb      25.71653449      11.02825697     304.36701318
Rb      24.29555413       5.68611526     448.06431335
Rb      25.39719730      12.13901318     306.26007750
10
Lattice="5.576356410980225 0.0 2.926919937133789 2.023422552576576 5.19606354723715 2.9318315982818604 0.0 0.0 6.7758564949035645" Properties=species:S:1:pos:R:3 pbc="T T T"
Li       6.45268073       3.44912964       7.32808512
Rh       2.52845613       0.76572582       8.02817372
Cl       3.31137294       3.96359433       4.50749479
Cl       3.57166971       0.33629251       3.33773818
Li       3.09364161       4.96836882       6.95494996
Li       4.96833677       2.43046204      10.16034725
Cl       1.34805911       1.28161292       6.01840878
Cl       6.17594632       4.67071753       9.76858247
Cl       3.85506341       2.74705347       7.85962627
Cl       0.82160604       1.89476461       2.45559914
12
Lattice="4.752530574798584 0.0 593.9806518554688 -21.590171302536305 18.71443393582973 612.1710815429688 0.0 0.0 593.05224609375" Properties=species:S:1:pos:R:3 pbc="T T T"
I      -11.47033697      12.17894738     926.83672311
Ce     -15.30835115      17.27470602    1398.34180275
Pb       0.87361606       2.87717499    1029.46124481
Sb      -9.19267020      11.99463651    1510.53325072
I       -2.18865773       2.81832266     759.69741811
V       -3.61376498       5.18282531    1010.86984552
Ag     -16.73482137      17.43565454    1298.78441661
Sb     -10.13661872       9.05181823     901.40626678
Bi     -16.34937769      15.87338586    1032.71195766
I        1.74055919       0.27294961     696.62034535
Rb      -0.25561484       2.86438672     739.11604247
Hg       3.34877756       0.91293794     985.46263374
4
Lattice="6.563201427459717 0.0 32.925296783447266 5.358438337021653 4.177344778620853 34.0557746887207 0.0 0.0 35.29826354980469" Properties=species:S:1:pos:R:3 pbc="T T T"
Tb       2.12876075       1.39647607      16.06219288
Rb       6.50173122       2.95019602      58.88459378
I        4.82872171       2.05370323      38.24840582
K       10.31363942       3.62108982      87.36599991
10
Lattice="4.176946640014648 0.0 -0.0020526538137346506 -0.004785479486004019 7.4885038343998 -0.23740753531455994 0.0 0.0 7.485937118530273" Properties=species:S:1:pos:R:3 pbc="T T T"
Sc       0.19761420       7.34934586       5.54254390
Sc       0.20033875       1.00743651       2.05261279
Sc       0.19787661       4.80766871       3.07640108
Sn       2.28568189       6.02257700       0.46039108
Sc       0.19885203       3.61761606       6.84332360
Sn       2.28722111       2.41478376       4.48163916
Li       2.28703643       5.10248620       5.30704537
Sn       2.28497349       6.96786647       3.38827180
Sn       2.28712319       3.30744682       1.67149090
Sn       2.28914704       1.32091610       7.23546279
10
Lattice="96.04027557373047 0.0 696.0258178710938 -91.76646098085484 18.228388464193756 698.0858764648438 0.0 0.0 708.3855590820312" Properties=species:S:1:pos:R:3 pbc="T T T"
Ca      54.52696525       5.07416031     901.26796226
Rb      26.48255850       7.59595536    1312.75168914
Ni      38.42423852       9.02130094    1602.26715564
Te      -4.00465005       9.08455786     847.85332063
Hg     -32.54760111      12.73147177    1105.36928666
As      80.02261504       0.28956666     819.58896122
Na      -0.02371961       8.58028599     692.37426492
O       -4.99470670      14.23380759    1348.77436764
Mo      53.44377600       0.16334752     572.80113406
Bi      53.51700972       4.96352128     949.31037486
5
Lattice="3.9579050540924072 0.0 -1.2073553800582886 -0.3657034943033329 3.941581123996459 -1.2065964937210083 0.0 0.0 7.088803291320801" Properties=species:S:1:pos:R:3 pbc="T T T"
Li       1.37582919       2.97310832       3.15911647
Li       3.53709352       1.00285118       3.15759985
Au      -0.10391288       3.52065119       5.39198067
Au       1.06075207       0.45651409       2.13224527
Eu       2.45653624       1.98819349      -0.38560257
11
Lattice="4.8967719078063965 0.0 -1.4033559560775757 -3.1048710340445496 3.924996439181573 -1.5016311407089233 0.0 0.0 6.642423152923584" Properties=species:S:1:pos:R:3 pbc="T T T"
La      -1.10290656       2.10982862       0.14789180
H        1.66993463       3.73934231      -1.60861606
H        1.02495401       1.00446073       3.19364799
H        0.64522586       3.79729662       1.64325569
H        2.34712545       0.97016272       0.73982901
Pd      -0.88024101       3.70170569       2.55493217
Pd       0.99573911       0.19653684      -0.23453906
Pd       0.89835876       2.29889605       4.39518231
Pd       1.63468679       2.32462753       1.61717196
H       -0.65902937       3.15927849       4.24640410
Pd       4.04167474       0.73815179       1.52775189
14
Lattice="6.839764595031738 0.0 3.868384838104248 2.3497670702924145 6.432369533489219 3.872663736343384 0.0 0.0 8.03779411315918" Properties=species:S:1:pos:R:3 pbc="T T T"
Y        5.27701885       5.57789294      11.81416471
S        3.09074114       4.04133670       3.44937934
Y        7.74617441       2.51440358      11.49575894
Na       4.45545907       0.19164075       5.26569356
Tm       8.90018957       5.65957459      13.39717666
S        6.67218653       4.05416561       5.49891441
Tm       7.66899674       2.46330529       7.52659034
S        5.36317964       0.84809261       7.69424719
S        6.50979456       4.00951495       9.56499844
S        1.97930764       0.97400673       1.63304808
Tm       4.25247718       2.50775639       9.52897576
S        1.89031139       0.83542156       5.69851102
S        3.07893561       4.03098799       7.74581599
S        5.56729299       0.98425719      11.23199122
4
Lattice="6.525454521179199 0.0 12.594651222229004 3.116998935446247 4.390468463702016 13.096749305725098 0.0 0.0 14.418600082397461" Properties=species:S:1:pos:R:3 pbc="T T T"
Cl       6.63419579       3.72629206      23.82044728
Rh       1.29445692       1.26174111       8.95217659
Cu       4.87942023       1.36479005      23.68921515
Ni       2.75627440       3.54744552      22.62666623
12
Lattice="4.366024017333984 0.0 -1.1841062307357788 -0.04710632922125027 9.484485948043748 -0.24754291772842407 0.0 0.0 8.582958221435547" Properties=species:S:1:pos:R:3 pbc="T T T"
Bi       1.44271020       2.87129462       0.26637839
Pb       1.90858808       5.73447691       1.92841399
Pb       3.07563623       1.69189063       6.23757247
Pb       3.34142842       6.98369545       7.20891614
Pb       4.26878778       1.88005169       2.03352962
Pb       0.41078981       7.88804766       5.02538102
Pb       0.73725681       4.71820474       6.24758216
Pb       1.47019675       9.06944200       0.32364207
F        0.77686216       0.41185498       6.43508537
F        3.92044251       5.86201524       0.71675957
As       2.23333639       9.10719742       3.10309788
As       2.47331208       3.59878157       4.03742596
10
Lattice="4.744716167449951 0.0 1.2385402917861938 2.1795209520050207 6.070878782154144 1.3653137683868408 0.0 0.0 9.769436836242676" Properties=species:S:1:pos:R:3 pbc="T T T"
Pr       5.80589891       3.46101529       6.39744940
Pr       6.57670433       5.39589781       3.34905692
Pr       2.79107157       5.76866024       8.23290370
Au       2.51040698       0.20581577       9.29121136
Tb       3.56979206       0.91755382       5.23473620
Pr       4.84848267       3.10540467      10.05404432
Au       3.60080373       5.63135962       5.10534417
Au       2.94744465       2.60066249       7.63029051
Au       4.03686098       3.24015712       3.41177566
Tb       1.89153042       1.86713160       1.91230986
11
Lattice="2.70585298538208 0.0 -0.28050339221954346 -0.04362286758137427 4.253480859965949 -0.649960994720459 0.0 0.0 13.544102668762207" Properties=species:S:1:pos:R:3 pbc="T T T"
Zn       1.40100398       1.29464966       9.76020863
Mn       2.55535813       0.90574189       7.18869297
Zn       0.27242234       1.64049260      12.23568785
Mn       1.82641155       3.92271278      12.74346862
Mn       2.63062381       2.38908456       3.16686227
Rh       0.67815956       0.05841813       2.44112541
Zn       2.01074669       0.45611796       4.71703648
Zn       1.24660018       3.20958787       8.04680147
Mn       0.13875430       3.55671911      10.49137171
Zn       1.47975996       2.00946749       0.93415174
Cu       1.21130827       2.78726858       5.64359708
18
Lattice="5.338860988616943 0.0 -2.0716819763183594 -0.793229305051526 5.9131904945782585 -1.1705987453460693 0.0 0.0 6.556359767913818" Properties=species:S:1:pos:R:3 pbc="T T T"
Be       4.08830806       5.48973862       0.65555068
Ce       4.77535186       0.23536546      -1.26036750
Be       1.38951840       5.86693624       0.26233156
Be       0.80221550       1.88746702       2.82631378
N        4.77332926       0.94821002       0.84576965
Be       4.56619489       3.50826235      -1.16516388
Ce       3.85885154       2.57712764       2.19888704
N        3.58988413       3.86642536       0.10561581
Be       1.29584520       4.57283864       3.74154861
N        0.37503912       4.53321791       0.35316019
N        2.68356759       5.66939797       1.76568589
N        0.85667953       3.00271698       4.02782559
Ce       1.68168454       2.70668131      -0.46898989
N        0.14235791       5.77108965       3.95768191
N        2.70414789       4.78843769       2.77745695
N        1.96298442       0.06523871      -0.56280455
N        4.32907669       2.20719462      -2.12214269
N        1.81968318       1.62497877       1.61691147
8
Lattice="5.013194561004639 0.0 -0.003095290157943964 -0.005683334542925606 5.013519880488892 -0.0028713708743453026 0.0 0.0 8.746143341064453" Properties=species:S:1:pos:R:3 pbc="T T T"
Tl       0.21696624       2.73173908       3.82532013
Sn       0.21780210       2.73427883       8.19594436
Hg       2.72436631       2.72887421       1.54585176
Hg       2.72442326       0.22379660       3.81610069
Hg       2.72524111       0.22642619       8.19817546
Hg       0.21786593       0.22348106       6.09636875
Hg       0.21789610       0.22737448       1.54962601
Hg       2.72407631       2.72979819       6.09587811
10
Lattice="4.197289943695068 0.0 0.03567555546760559 -1.9875822319548333 7.829437342722458 -1.2956171035766602 0.0 0.0 9.271102905273438" Properties=species:S:1:pos:R:3 pbc="T T T"
La       1.91655888       4.93659806       0.71276382
La       1.94013128       6.59984837       4.42233284
La      -0.21323531       2.41299177       2.93843877
Tl      -0.13893899       7.59359357       1.63152757
La       1.84923095       0.48063426       8.88273328
Ir       1.92995921       6.14901915       7.26375541
Ir      -0.17443645       5.14477478       3.12092754
Pt      -0.21683840       2.77347235       0.03071488
Tl       1.87394030       1.62419101       5.63696791
La      -0.19186880       4.20009535       6.62725373
12
Lattice="4.37537145614624 0.0 -0.9855300784111023 -0.4469928482905595 9.020193894306331 -1.9320447444915771 0.0 0.0 10.218767166137695" Properties=species:S:1:pos:R:3 pbc="T T T"
Br       0.31045598       4.11375709       3.82765617
Na       2.39381100       6.15305489       2.87536391
Na       0.76546218       8.90219900       5.87220129
Tl       2.59704835       1.47207070       3.75183619
Br       3.29283602       1.92240898       6.85291739
Br       1.87979288       0.43568946       0.56048189
Na       3.76636915       7.52714871      -1.22917098
Rb       3.98976566       3.01611034      -0.26451798
Br       3.06096026       6.88817483       5.85105875
Br       0.09740099       8.16805865       2.89800194
Tl       1.00712245       4.56155284       6.92543535
Br       1.72401785       5.60103764      -0.09768970
4
Lattice="4.127047538757324 0.0 1.1072478294372559 1.9245936912991366 3.647823948895184 1.1095865964889526 0.0 0.0 8.319991111755371" Properties=species:S:1:pos:R:3 pbc="T T T"
Br       5.35799548       3.16779372       7.98430445
La       0.73190698       0.37937932       0.40771167
Nd       1.87690359       1.06607679       4.42650323
Au       4.31515092       2.53640999       3.57892296
10
Lattice="6.997497081756592 0.0 0.03137124702334404 -3.4443354572712224 5.303149482465741 -0.8401721119880676 0.0 0.0 8.845722198486328" Properties=species:S:1:pos:R:3 pbc="T T T"
Cs       3.49307009       2.80124004       3.14035279
Pd       3.39365203       5.08063154       5.89084495
Cs      -1.75239894       2.78344878       7.54530395
Pd      -0.14711040       2.71607654       1.98558371
Cs       1.77309223       4.98959220       0.31208554
Hg       1.38666064       1.24587283      -0.08583707
Hg       0.33203924       1.25200755       4.35555856
Cs       0.02435997       4.99897414       4.72230168
Pd      -1.59204697       5.08121979       1.44206773
Pd       1.88206245       2.71076114       6.41014783
18
Lattice="5.061063766479492 0.0 -0.003068736521527171 -2.5367567795022983 4.382419559811143 -0.0013264104491099715 0.0 0.0 9.163518905639648" Properties=species:S:1:pos:R:3 pbc="T T T"
F       -0.52406654       1.81140750       8.92058801
Li       0.27675410       3.19861494       3.26643665
F        3.60759281       0.20042895       6.78077480
Li       2.80728577       1.73619591       7.85029588
Ga       0.27524139       3.19735511       7.84928066
Fe       0.27875613       0.27623715       0.97875819
F        2.00251546       3.12180722       4.33455679
F       -1.45417253       3.12119702       2.19849733
F        3.60842261       0.35194050       2.19711353
F       -1.32260973       3.19582519       6.78238522
F        1.20890796       1.74033561       2.19821832
F        2.01182218       0.35329472       4.33843328
F       -0.65430582       1.74099452       4.33828802
Ga       2.80891367       1.73721556       3.26919020
F        1.07954464       1.81562778       6.78148566
Fe       0.27871420       0.27683164       5.56106757
F        2.01176485       0.19831277       8.92131463
F        1.87101046       3.19446636       8.91884620
10
Lattice="6.226395606994629 0.0 -2.6762030124664307 -4.636696120687277 6.0834702342300755 -0.5017576217651367 0.0 0.0 7.39946174621582" Properties=species:S:1:pos:R:3 pbc="T T T"
Tl      -1.32684344       4.77178259       1.49004748
Rh      -0.14119122       2.47351415       0.60504651
Tl       1.85991631       2.89449234      -1.21118506
Tl       1.50766622       1.50047295       3.14364126
Sr      -0.75224346       4.69131045       4.89092686
Tl       0.99866750       0.01494191       0.24349313
Tl       1.99564699       4.32473107       1.67615802
Tl       4.46440820       1.40756824      -0.03825454
Tl       4.83763769       1.36040717       3.09664457
Rh       3.43462528       3.55083855       4.12812901
11
Lattice="5.079165458679199 0.0 -1.437156081199646 -0.4474883512400255 6.751800186356359 -1.5762913227081299 0.0 0.0 9.728311538696289" Properties=species:S:1:pos:R:3 pbc="T T T"
La       4.67222062       4.38531926      -1.04584355
La       1.65499750       2.82592743       7.70341134
Zn       0.44729547       4.06836099       3.41831695
La       2.61851724       2.15392531       1.38580537
La       2.74641441       5.61934547       1.84576892
La       4.68323358       0.60249322      -1.02066057
La       0.70491649       1.18116046       4.32344232
La       1.08422059       6.10913101       5.67829906
Zn       3.82853061       0.91141660       5.68156806
La       3.57278218       3.80857879       4.77598390
Cu       1.91481723       5.86655387      -1.10143464
16
Lattice="7.668869495391846 0.0 4.058874607086182 2.76756297570128 7.152398622624052 4.056170463562012 0.0 0.0 9.279441833496094" Properties=species:S:1:pos:R:3 pbc="T T T"
Pr       0.16564139       0.40181518       2.62228023
Pr       4.39951478       0.65671748       8.56252498
Pr       0.53598702       0.65656678       6.51868159
Pr       1.92509125       4.21643200       8.57644474
I        8.18744123       5.88133224      15.29605911
Si       2.96885694       2.30422190       6.59909305
Pr       4.01549367       0.39300493       4.62040916
I        6.80286709       2.30378258      13.27018126
Pr       1.53927181       3.95131961       4.63479251
Si       8.18792906       5.88024215      10.65783584
Si       4.35207634       5.87982266       8.62746149
Pr       5.40164012       3.95249198       6.67934208
Pr       5.77449484       4.20758125      10.57762158
P        6.80355561       2.30426133       8.62815252
I        2.97160036       2.30438112      11.24017238
I        4.35284810       5.88084497      13.26823810
9
Lattice="5.1311750411987305 0.0 0.0007912944420240819 -2.5672528227266294 7.291689842771359 -2.4498093128204346 0.0 0.0 8.136119842529297" Properties=species:S:1:pos:R:3 pbc="T T T"
Nd       4.70969086       0.32337709       2.26304002
Tb       2.14442196       2.74853944       1.44538677
La      -0.42183367       3.56007360       3.90988333
Tb      -0.42174166       6.82880106       5.55092683
Tb      -0.42140277       1.93756854       7.20113484
Tb      -0.42356551       5.16874496       0.63478672
Sm       2.14446248       1.11425394       4.74094951
Nd       2.14281362       4.37492064       6.38329852
Nd       2.14436494       6.01163207       3.09279192
15
Lattice="16.27768325805664 0.0 651.1337280273438 -5.401002049065028 4.595472828702258 655.401611328125 0.0 0.0 656.7924194335938" Properties=species:S:1:pos:R:3 pbc="T T T"
Rb      -1.03143378       1.56049711     791.98827813
Be      10.17161020       2.62452327     991.60640150
Rb       8.44552881       2.16549905     790.23767424
Rb      -1.37368444       1.17185322     683.81822395
Rb       8.04141962       3.00927529     895.23556112
Rb      -0.82490185       2.75381499     548.78624135
Rb      -3.25165257       3.36416492    1135.11159837
Rb      -3.58758892       4.20764040     661.79860345
Zn       7.38472294       0.46978980     577.86894711
Rb      13.60790467       2.01212051    1536.58499647
Rb       4.95085866       1.03675958     597.90164235
Rb       7.19645127       3.60449873    1220.88820171
Rb      -1.05420402       4.35842760    1193.69329390
Rb       4.49932756       3.13880997    1332.70828360
Rb      -0.68392851       1.15612152     349.10891433
20
Lattice="9.422764778137207 0.0 -3.3382930755615234 -4.72393496282166 8.151537227906157 -3.346017360687256 0.0 0.0 9.996999740600586" Properties=species:S:1:pos:R:3 pbc="T T T"
Rb      -1.26313555       7.74296229       0.23901532
Br       3.34590291       3.66559323       3.49873663
Br       6.99141742       1.62499752       3.58153783
Sn      -1.26237272       7.73759635       5.23738725
Sn       5.81186116       3.66384264       5.24408938
Rb       5.81236770       3.66233280       0.24501041
Sn       3.45025820       7.74087597      -1.42890898
Rb       3.44893943       7.74126369       3.57128370
Br       2.21641706       5.60266593       0.31965533
Br       1.09228147       7.74083467      -3.08988824
Br      -3.61997385       7.73732767       3.57208387
Mg       1.10265320       3.66080620       1.91377617
Br      -0.02558668       5.60565014       3.49276673
Br       2.22048357       1.72521296       0.33472223
Br      -0.01724047       1.72318762       3.50856475
Br      -1.14622745       3.66500581       0.32482259
Br       4.63341823       5.70011629      -3.08947574
Br       4.63754357       1.62608611       6.91715489
Rb       1.09658113       3.66192442       6.91472959
Br      -2.43634887       5.70456054       6.91390669
10
Lattice="4.474441051483154 0.0 -2.237281322479248 -0.7709433015995877 4.704906779467396 -1.4354333877563477 0.0 0.0 5.041327476501465" Properties=species:S:1:pos:R:3 pbc="T T T"
Mn       1.76408167       1.47399912       3.41534075
Mn       1.76435216       2.24099758       0.95016385
Os       0.64483156       3.79112284       2.66135127
H        2.94570519       0.81346979       1.32285662
Os       3.94998405       2.25228422      -2.72992204
H        1.17002250       2.89356118      -0.60307024
Os       4.02300524       1.50721026      -0.24514101
Mn       2.83527033       4.45865883       1.58055277
Mn       0.61849905       4.50489515       0.22668103
Os       2.86533623       3.77379256      -0.92285435
18
Lattice="6.403902530670166 0.0 -1.9287358522415161 -0.787850486822209 6.276986753952834 -2.7041397094726562 0.0 0.0 6.849338054656982" Properties=species:S:1:pos:R:3 pbc="T T T"
Sm       5.57544074       2.86262304       0.89188231
P        4.94301981       5.25094479      -3.75805076
Sr       2.82995890       0.70858914       0.55705188
Sm       6.02183586       2.67196086      -2.41711670
Sm       2.15846420       4.23726993       2.61958784
N        5.54805889       5.31026130      -2.25176847
Sm       3.51571318       1.23440872       3.90013975
N        5.10068885       0.80360306       2.15442485
P        5.39290217       5.90775189      -0.76783276
N        2.11980724       4.63130713      -1.81111302
N        1.40921612       2.06001098       3.53549935
N        1.51708339       2.04473625       4.92658806
P        2.43149026       3.35881850      -0.95612287
N        1.67213352       3.12056433       0.53150585
N       -0.16421880       5.13854002       2.22274027
N        4.56742368       3.68049300       2.82411672
N        3.74392878       6.17636582       2.71144780
N        3.97637559       2.72014042      -0.89334865
4
Lattice="16.533687591552734 0.0 441.1617736816406 2.8585450082678037 95.87707388683732 523.4639892578125 0.0 0.0 512.1637573242188" Properties=species:S:1:pos:R:3 pbc="T T T"
W       16.56998567      39.95376878     774.24005614
Sc       9.26528232       0.65759423     389.46009406
Ga       8.01770450      54.19270248     882.54424436
N        9.87242031      48.69248553     518.54729359
16
Lattice="5.977420806884766 0.0 2.009533166885376 2.5633728911567446 8.457791921739277 -0.09143487364053726 0.0 0.0 9.58387279510498" Properties=species:S:1:pos:R:3 pbc="T T T"
Y        2.63140427       7.73788465       3.18111094
Y        5.66344980       1.41055974      11.19924687
Y        2.96614171       5.04162198       5.41848259
Y        2.83003037       6.36006875       8.87745455
Y        1.01899940       2.10953000       5.70046036
Y        3.86080732       4.56983733       2.13624093
Y        2.00602579       1.95268981       2.55694185
Sb       7.02101529       4.17088494       2.49914132
Y        5.26570454       8.22192606       9.95761847
Y        3.38615092       2.77854700       8.33757262
Y        5.91823033       7.21263818       3.30175998
Sb       4.26236470       1.95372050       4.96237275
Sb       7.89361048       7.94878782       8.33748188
Y        6.19073025       4.64081240       5.53505133
Y        6.06223187       5.03529372       9.08619852
Y        5.19494205       7.79313358       6.57167320
16
Lattice="152.6442108154297 0.0 866.662353515625 24.591059496263373 28.557198538930166 970.8380737304688 0.0 0.0 996.6461791992188" Properties=species:S:1:pos:R:3 pbc="T T T"
Cd      35.30007686      22.59689074    1844.06759033
Rb     149.61556390      23.02703726    1638.14628747
Mo      61.20214350      26.53202101    1907.09828864
Sm      28.81325202      22.73268760    1152.63026063
Rb     117.20209460       2.69156174     948.56720377
Er      62.51908746      17.75064147    1742.88566148
Rb     125.00483175       6.43288573    1402.21342245
Rb      73.68782615      24.55879285    2006.41090708
Rb      60.76344185       8.84025832    1074.20183496
Y      152.64576527      16.55981975    1429.56365089
Eu      28.52575291      27.66095627    1578.67309750
Nd      19.94139420       4.44815450     403.36352982
H       39.65756327       3.44582093     593.37391867
Gd     116.97559547      26.39371349    2186.83236570
Rb     165.16847215      18.47332487    2369.36216932
Pb       2.27925563       2.58123934     436.09363734
12
Lattice="4.922127723693848 0.0 0.007121337112039328 0.01721659301044851 7.269674418354727 -2.1454813480377197 0.0 0.0 10.461264610290527" Properties=species:S:1:pos:R:3 pbc="T T T"
Hg       1.97627773       1.04366614       5.68090761
Sb       1.97702679       1.14186290       9.96874045
Hg       4.44341364       2.83388362       4.42225615
Tl       4.45104075       6.95068814       0.82306482
Pb       4.45124591       6.44455425       7.69258704
Tl       1.98579656       4.44022981       6.04689100
Pb       4.45216372       6.16240204       4.23589106
Tl       4.44033783       3.15894810       0.79694455
Sb       1.98800743       4.96799782       2.53641244
Hg       1.98060021       1.79974155       2.55017830
Tl       4.44136501       2.26009608       7.81239657
Tl       1.98872770       5.07646004      -0.85170334
12
Lattice="3.681429624557495 0.0 0.0009337345254607499 0.002717774896999681 7.854777819616112 -3.8536570072174072 0.0 0.0 9.472111701965332" Properties=species:S:1:pos:R:3 pbc="T T T"
S        0.29393029       7.01829010       4.87846131
S        2.13157355       4.58366290       2.76586728
Zr       2.13309529       5.19436039       5.28389652
Zr       0.29527290       7.58952974      -2.03352229
Ag       0.29129940       6.33392149       2.24514310
S        2.13168319       1.48417726       1.24609976
Rb       2.13424991       1.28072968       7.29988348
S        2.13346028       5.76535001      -1.66934033
S        0.29240333       3.32074541       5.50306863
Zr       2.13375280       2.18034579       3.74554307
S        0.29169423       0.34377088       4.33111391
Rb       0.29384438       3.90023346       0.15983177
14
Lattice="6.866970539093018 0.0 3.9339399337768555 2.307400772018297 6.53167554768155 3.936414957046509 0.0 0.0 7.970193862915039" Properties=species:S:1:pos:R:3 pbc="T T T"
Nd       5.49228676       5.03878897       7.92958815
Tm       4.33938285       1.77258037       5.96177902
S        5.51890682       0.22792493       7.88512716
S        6.66862061       3.34291304       9.84203239
S        6.60518376       3.30297445       5.98846276
Mg       7.78069748       4.21625343      11.89568248
S        3.24654071       3.34332300       7.88326113
S        2.07613151       0.24238156       5.93436450
S        5.43174131       0.20066841       4.03957741
S        3.15906770       3.31445622       4.03751963
Tm       0.90688839       1.77201099       3.99310837
Mg       3.20226693       5.85417272      11.93037150
Nd       4.33802490       1.77087983       9.94591612
S        2.00796148       0.19862354       2.07608195
12
Lattice="3.7810301780700684 0.0 -0.24049365520477295 -0.8511250509594602 8.03554884955363 -0.920002818107605 0.0 0.0 7.863766670227051" Properties=species:S:1:pos:R:3 pbc="T T T"
Ba       1.63067352       3.96170017       5.94737238
Ba       0.58562917       0.36026438       1.38339217
Ce      -0.13718298       4.69559779       2.15264217
Cl       1.63943081       6.86306687       6.22887961
Ce       1.89386801       7.52876834       3.53231780
O        1.81272919       4.21869600       3.12621909
O       -0.11298393       4.50979351       0.06960344
O       -0.05262417       6.15555445       3.86738013
O        1.74927956       6.65971794       1.55267269
F        2.41075199       2.19901552       1.34695106
O        0.99194960       0.66949600       3.95935696
Cl       3.46120339       1.65512190       6.24144514
4
Lattice="87.70301055908203 0.0 413.6671447753906 8.57224029608585 21.446140011395823 483.2516174316406 0.0 0.0 500.10772705078125" Properties=species:S:1:pos:R:3 pbc="T T T"
V       35.40514457       4.78860946     446.36561091
Rb      17.32535423       0.28280638     507.89523042
Rb      26.04632710       3.50249102     495.76381798
Tl      59.70167394       4.15838970     482.47038591
10
Lattice="4.809574604034424 0.0 0.004765443503856659 0.007081051326218204 4.810423407654271 0.004882126115262508 0.0 0.0 12.320138931274414" Properties=species:S:1:pos:R:3 pbc="T T T"
Sr       4.18889742       3.35779259      12.05403926
Mg       1.78115452       0.95187777       1.09240070
Mg       1.78497564       3.35851112       8.95594602
Sn       4.18737854       0.95240448       2.78772771
In       1.78393567       3.35905475       2.79266005
Sr       1.78093887       0.95290037       5.85460237
Mg       4.18549815       0.95272776       8.95617645
In       4.19020760       3.35765811       7.27171149
Mg       4.19008782       3.35846582       4.48972595
In       1.77967521       0.95299513      10.64047590
20
Lattice="7.248787879943848 0.0 3.3056843280792236 2.33371874150066 8.118134528005394 3.45784592628479 0.0 0.0 9.030963897705078" Properties=species:S:1:pos:R:3 pbc="T T T"
In       6.86399980       5.92664046      12.75587410
Sm       6.00907519       2.77687095       3.67048870
Sm       7.18232453       4.92187880       7.09653167
Sc       6.90349532       2.12840961       9.21083105
Sc       3.91682289       3.72282250       7.13893665
Sc       2.04526358       4.23238868      10.13882981
Sc       1.31575355       1.61982219       2.92771578
In       2.41299449       1.24464904       6.25585073
In       5.67765114       1.45781470       6.65684303
Sc       4.58782644       6.25412897       5.48999079
In       8.52397384       7.83565544      14.33798781
In       4.97278050       4.32225121       9.83752960
Sc       3.90935905       6.64009564      11.61335120
In       3.80524059       0.14935564       3.66009227
Sm       2.90480717       6.97098387       8.27842063
In       6.53917408       6.94888562       9.91833839
In       9.18935444       7.49769968       8.23263516
In       2.97675901       3.90177118       4.08972945
Sm       3.62808258       1.06857798       9.35182756
In       8.25937543       4.40539461      10.46470872
12
Lattice="4.0017619132995605 0.0 -0.26222190260887146 -1.2656978585447127 8.682455724340267 -0.4765997529029846 0.0 0.0 12.134406089782715" Properties=species:S:1:pos:R:3 pbc="T T T"
Dy      -0.06920444       2.12297049       9.44458054
Dy       2.31123013       8.60564154       3.80654737
S        3.74173651       0.36616564       6.98635942
Cl       0.23749954       3.41361849      11.81708345
Cl       0.33701692       6.93329127       4.51650816
S       -0.25517135       2.24718437       6.52768504
Cl       1.87582207       0.60673474      10.17730776
Cl       1.52381480       1.44603877       3.69243687
Cl       1.87350558       5.00740951       2.21614432
Cl       2.62254996       8.02067502       1.03662091
Dy      -0.40037640       5.60343429       0.85509252
Cl       1.98242992       3.78126972       8.77587400
5
Lattice="43.7884635925293 0.0 303.8649597167969 3.1943454595571126 0.31557152390922805 308.8546447753906 0.0 0.0 311.50421142578125" Properties=species:S:1:pos:R:3 pbc="T T T"
Sb      28.15275650       0.08944840     343.45159934
Rb      33.96370906       0.15130530     536.35737690
Sb      10.39522642       0.01730283     352.61924109
I       32.77137620       0.24769503     501.29391508
Rb      33.74635407       0.01963097     474.54412197
12
Lattice="12.025390625 0.0 85.0973892211914 8.614874584969185 7.358339665223296 82.50867462158203 0.0 0.0 117.50682830810547" Properties=species:S:1:pos:R:3 pbc="T T T"
Eu       8.64033572       0.82847086      82.67187753
Rb      16.96798251       6.55718438     146.39004775
Rb       8.84782408       3.10317456     144.38828116
Rb       6.88755828       2.58813272      86.17803963
Rb      11.84014057       3.17052770     157.77131802
Nd       4.65786395       3.06521252      60.98993582
Pr       9.10910364       0.29276362     172.59105097
Nd       8.63048609       6.70186860      81.77115031
Rb      10.84229761       7.21023267     145.03204791
Ce      15.53835927       4.26286063     187.06468096
Rb      12.97586838       5.98569344     115.08523291
Rb      14.67789996       3.36220588     115.65291219
7
Lattice="94.56486511230469 0.0 416.6943359375 -14.532397869103892 117.61950030187046 531.49853515625 0.0 0.0 509.8128662109375" Properties=species:S:1:pos:R:3 pbc="T T T"
Rb      59.54086898     109.20554130    1315.52417270
H       30.35689541      64.28940085     606.05768806
I       88.34941280      14.29906207     861.34319765
Ce      23.16376688     111.64472815    1081.73960881
Be      66.16137418      89.69856642    1091.72748483
Cl      -3.09204664     111.43707916     839.09713695
I       10.79120335      66.16278468     693.38001689
4
Lattice="4.569359302520752 0.0 1.8119652271270752 1.9302500481905995 4.141341383559898 1.8120098114013672 0.0 0.0 6.6977434158325195" Properties=species:S:1:pos:R:3 pbc="T T T"
Cd       4.64189904       3.49063437       9.10635705
Sr       1.08633243       1.22578177       4.72895838
Mg       2.39528270       2.05900353       8.10361145
Pb       4.27390301       0.34462440       3.34389537
10
Lattice="5.460762023925781 0.0 -1.736443042755127 -3.0744459866684783 5.259367181074349 -0.20210206508636475 0.0 0.0 7.377419471740723" Properties=species:S:1:pos:R:3 pbc="T T T"
Ge       3.25320073       3.44325650       5.35322021
Ge       0.15807317       4.17187935       0.65183227
Dy       0.38610534       3.65231216       4.16437659
Ge      -0.62675475       1.23825671       2.50433692
Ge       2.58932608       0.68658184       6.24597707
Mg      -0.03134111       1.31354092      -0.22336893
Ge       3.61398341       1.91431259       3.22173765
Mg       2.59817095       2.94641743       0.70932014
Ge       1.79126187       0.25838924       2.64601312
Ge      -2.63112645       4.86229493       4.63386836
4
Lattice="3.948354721069336 0.0 -2.060335874557495 -2.597946540685911 3.669580366303455 -0.47129082679748535 0.0 0.0 4.5178093910217285" Properties=species:S:1:pos:R:3 pbc="T T T"
Mg      -0.16410587       2.29950505       0.39929376
Au       2.45986312       1.38133195       0.61556446
Li       1.13268627       0.46284269       2.89562047
Au       1.15705984       3.21789336      -1.87730859
6
Lattice="3.872598886489868 0.0 0.01250319555401802 0.0008822492457987029 5.411169933876395 0.018771134316921234 0.0 0.0 8.734749794006348" Properties=species:S:1:pos:R:3 pbc="T T T"
In       0.84515308       3.33447274       2.13418672
In       2.78338386       0.62881830       0.08939784
S        0.84921369       0.62899259       1.85243510
S        2.78224512       3.33521004       0.36888904
Br       2.77910318       3.33123001       4.11041158
Br       0.85323522       0.63279422       6.85010582
4
Lattice="4.372355937957764 0.0 2.5244903564453125 1.4581580028893768 4.1223773075111865 2.524265766143799 0.0 0.0 5.048973083496094" Properties=species:S:1:pos:R:3 pbc="T T T"
Ag       4.42894779       3.25421858       7.90953639
In       4.42833753       0.16250647       2.86086845
In       2.96998033       2.22294141       5.38316636
Ga       1.51363386       1.19307648       2.86030355
6
Lattice="4.271096229553223 0.0 0.540058970451355 -1.3579676944680308 4.313231547587159 -1.5884149074554443 0.0 0.0 4.44036340713501" Properties=species:S:1:pos:R:3 pbc="T T T"
Mn       2.23562771       0.06242310       1.86988332
Ce      -0.10726959       2.19331081       2.32602192
H       -0.74217282       3.38656354       0.21535107
Rh       0.28231265       0.34574247       0.25613277
Rh       2.26326132       2.24204247       0.36218652
H        1.80248517       0.65386329       3.61726829
12
Lattice="4.81305456161499 0.0 0.4109663963317871 -0.011450652325349583 5.383573752337947 -0.03710174560546875 0.0 0.0 7.745694160461426" Properties=species:S:1:pos:R:3 pbc="T T T"
Ag       0.90329664       1.86450506       6.57882382
Ag       0.46243779       1.85392401       3.74892478
Zn       3.31721740       3.20280200       7.11825243
Li       1.62530456       3.21153042       1.38488260
Li       2.83048902       3.20586294       4.40253493
Li       3.32998461       0.50772119       5.76289046
Ag       0.87307244       4.54000938       6.56819937
Li       0.36366616       0.51605111       1.31317585
Au       4.00555884       3.21749602       1.97355756
Zn       2.84252358       0.52168623       3.12586737
Ag       0.48961621       4.57511495       3.73431483
Au       2.84202461       0.51781695       0.53352531
12
Lattice="5.030224800109863 0.0 -0.40763428807258606 -0.5448760058177634 7.509667702337592 2.599851608276367 0.0 0.0 7.362959384918213" Properties=species:S:1:pos:R:3 pbc="T T T"
Sn       0.82679368       4.73413169       4.76130891
Ca       2.17043366       3.19520721       2.19871895
Sn       3.41930149       2.81584317       6.16463757
Sn       4.55331911       1.06329854       1.73327222
Sn       2.26912369       6.59461280       2.62574849
Sn       2.39795391       0.48018446       4.96797988
Sn       3.96784636       5.41476864       7.40759244
Pd       0.15127027       2.10016230       4.51823857
Pd       3.45181182       5.59764507       4.76744345
Pd       1.98473314       0.15102552       2.37258562
Pd       1.41280125       5.26097037       7.41632071
Pd       1.03269219       1.50833574       7.21077658
5
Lattice="66.6342544555664 0.0 742.0056762695312 -71.01201421224232 60.44454982166861 151.74346923828125 0.0 0.0 1074.763427734375" Properties=species:S:1:pos:R:3 pbc="T T T"
Cs     -26.79563420      42.95035623     785.52465563
Yb      21.72007055       8.93584983    1299.32414032
Rb       1.46011616       0.19371480     567.12304165
Rb       9.08113682      24.43330394     685.79952929
Te     -32.00154806      31.52609430     290.74598064
3
Lattice="3.657684564590454 0.0 0.1800689399242401 1.8437144698248171 3.1605877480910003 0.16710279881954193 0.0 0.0 7.248164176940918" Properties=species:S:1:pos:R:3 pbc="T T T"
Ce       2.33703581       2.30399774       1.90256882
Ce       2.03169051       0.03437682       6.94668701
Hg       4.01410905       1.16998490       4.51242328
13
Lattice="7.267944812774658 0.0 -1.3989818096160889 -0.3314842101366103 7.576649236379814 -3.519885540008545 0.0 0.0 10.30514144897461" Properties=species:S:1:pos:R:3 pbc="T T T"
N        4.97896826       2.27190108       5.00858322
Ba       0.68076447       6.19667995       5.73409134
Ba       4.28420003       4.30197662       6.57570596
Ba       4.66718222       0.34872296       6.63425525
Ba       5.90337939       4.61100979       0.39455724
Ba       2.98043147       2.39416821       3.36062854
Sn       5.41092043       7.46449667      -3.48216361
Ba       6.38713542       1.26324153       3.01057316
N        1.82782815       4.56900750       7.20871359
Ba       1.51661408       5.90282878      -1.00643321
Sn       0.38053907       1.84065599       0.74817686
Ba       0.53964153       2.51469711       7.55346785
Sn       1.11334866       6.96489767       2.36116902
18
Lattice="6.411042213439941 0.0 0.7874546051025391 -1.8881887440609546 6.184726174699924 0.1410776525735855 0.0 0.0 7.472480773925781" Properties=species:S:1:pos:R:3 pbc="T T T"
Ge       5.23904799       3.12397457       5.75254330
Sr       5.80169836       0.15124232       3.89664634
O       -0.72505443       3.92653909       2.02897019
Y        2.61459525       2.41160739       2.31154502
O        0.10286680       3.83486719       3.10436105
Ge      -0.36296894       2.95767183       0.39541833
O        3.98153534       4.35775755       5.33277961
O        2.23913985       5.50858472       7.11801318
Ge       2.39641434       1.31227974       5.18949090
Mg       2.07687882       3.66773281       5.93770926
O        3.91330198       1.55397880       4.09595897
Ge       3.59394962       5.10212254       0.84606151
O        1.41825802       1.08800815       3.61797327
O        0.05244596       3.99536572       6.48332329
H        4.78095946       0.07801195       6.28978570
O        1.04448972       1.99348941       0.69716752
O        2.74721461       4.83712756       2.34562111
O        4.44350617       2.38343954       0.90062416
10
Lattice="4.590564250946045 0.0 -0.00840961467474699 -0.012448109824629844 4.621278686719463 -0.008264281786978245 0.0 0.0 11.373888969421387" Properties=species:S:1:pos:R:3 pbc="T T T"
Zn       1.16504479       2.41802092       4.18775259
Zn       1.17198531       0.10789082       2.77915819
Pd       3.46114949       2.41718162      10.04804589
Ca       1.17225528       0.10924567       6.29794390
Zn       1.16596694       2.41571568       8.76291262
Ca       1.17223527       0.10646695      10.86080399
Sr       3.46105798       2.41783692       1.82624846
Zn       3.46565754       0.10831928       8.77788902
Sr       3.46154744       2.41927284       6.50474945
Ge       3.46766981       0.10798628       4.20525568
8
Lattice="5.565150737762451 0.0 2.6599338054656982 -1.1718655586381315 5.284710827606214 2.685222625732422 0.0 0.0 7.1548004150390625" Properties=species:S:1:pos:R:3 pbc="T T T"
Au       1.49206018       3.14726040       6.02736973
P       -0.35052830       4.44468351       2.87655262
Se       0.12904444       5.01909398       5.04756192
Se       3.85380907       2.56536522       5.45613940
Ag       3.05110369       1.94027438       2.90739485
Se       1.49863991       3.80066362       8.82240907
Se      -0.14640821       0.95062399       6.32298085
Ag       4.66844718       0.14275176       6.56976268
8
Lattice="13.132580757141113 0.0 15.358366012573242 5.4149729506184485 9.168772845086655 17.172426223754883 0.0 0.0 25.38729476928711" Properties=species:S:1:pos:R:3 pbc="T T T"
Pb      10.38552754       5.25693078      40.07455624
S        1.71579483       1.12827055      21.24536957
I        2.76089753       4.30412545      24.30222084
Cl       9.34529881       4.64044818      20.76788479
Cl       7.11353270       0.40584157      25.76104005
S       11.72605328       0.32880024      38.58142182
S        4.35453056       5.00524282      35.19051612
In      11.94600409       2.80602972      24.06570118
9
Lattice="4.919139862060547 0.0 -0.6815606951713562 -2.491044502403725 8.393096748973264 -2.7203352451324463 0.0 0.0 9.14950180053711" Properties=species:S:1:pos:R:3 pbc="T T T"
Bi       0.96634596       5.97164472      -2.31440101
Tl       0.25694097       1.41844923       4.29706746
Tl       3.22934020       1.18492847       6.20893637
Ba       1.11233921       5.21534574       1.64724362
Ba       1.08906130       0.71313302       0.10076135
Te      -1.05938606       6.33146916       4.39795887
Te      -1.60003342       7.01146583       0.10060511
Te       3.68015729       2.68023968       1.08409916
Bi       2.44654715       4.01763194       5.00400790
20
Lattice="5.05049991607666 0.0 -0.0019641618710011244 0.00922451327264939 5.626191206520443 -0.8647211790084839 0.0 0.0 7.599655628204346" Properties=species:S:1:pos:R:3 pbc="T T T"
V        2.71691201       2.52837030       5.77799697
Mo       2.72005887       4.63368343       0.20456014
Mo       0.19735293       3.37431847       3.25796884
V        0.21170251       5.44895488       1.52874757
N        1.05532358       3.61934220       1.18178398
Mo       0.14411168       5.58989457       5.27857058
Mo       2.72157647       4.65173550       4.09891415
Mo       0.19698407       1.83558673       0.59508702
N        0.97359723       5.41442788       3.37269959
N        1.86336490       0.74171441       1.62438900
N        4.41539403       5.49214189      -0.37214746
N        3.51383769       0.78065919       5.47412827
Mo       2.74629994       2.50937003       2.01691259
N        1.88987025       4.46558397       6.06202146
N        3.60780306       4.51185181       2.26278469
N        1.07542807       1.64580289       6.52408527
N        1.91247129       2.61965765       3.93276741
N        4.33776951       3.57212734       4.97205160
N        3.53890998       2.66581785       0.00019747
N        4.44946047       1.62285190       2.66466727
8
Lattice="6.861201763153076 0.0 9.374279022216797 6.351316251566856 7.67544314990559 8.285937309265137 0.0 0.0 13.012308120727539" Properties=species:S:1:pos:R:3 pbc="T T T"
Pr       7.59724255       4.09953376      16.69455575
P        6.19083675       2.20487224      18.16033616
Pr       4.18214294       4.01871596      17.83562316
P        6.00671686       6.09463240      17.67114432
Cl       2.29613344       2.03395618       5.81783780
Cl       9.12341628       5.94443089      15.00484634
Pr       4.37371237       0.12769324      18.20028566
Pr       0.93725711       0.25537610       7.74592666
15
Lattice="22.2777099609375 0.0 154.00790405273438 -18.746972503966163 17.811973116332897 151.31640625 0.0 0.0 150.7308349609375" Properties=species:S:1:pos:R:3 pbc="T T T"
Au      15.26863221       5.78569063     315.87616758
Rb      14.96968199       3.94268926     236.96439665
I        0.83776603       1.47088939      56.69152608
Rb      -3.36336358      15.67237468     280.25138073
Rb      -8.86778964      11.51633440     158.11772385
Mg      19.66691984       0.02469526     153.03554693
Rb      15.81198424       2.91246854     224.91243880
Rb      -9.69975823      14.99797877     291.51522553
Rb       0.23184760      11.81992605     225.66793099
Rb      -6.28246668      12.87108329     256.14936503
Rb      -7.50385923      17.05161752     331.10594022
I       -4.56846024      14.69077954     206.67129737
Rb      12.69290120       4.20380298     158.21722580
Rb       8.39843884       5.28211578     163.69174512
Rb     -13.75455828      14.59953907     266.31880622
4
Lattice="4.918605804443359 0.0 216.45068359375 2.656447582096008 4.200770585947503 262.3928527832031 0.0 0.0 239.6804656982422" Properties=species:S:1:pos:R:3 pbc="T T T"
Ge       1.35617669       0.40023249     299.24873037
Rb       3.58136426       0.69037800     335.99668262
Rb       2.09111376       1.19533395     263.57315349
Ag       3.22239542       3.79904668     395.24453602
6
Lattice="17.387296676635742 0.0 58.51593780517578 18.16092790903258 3.5283206235681797 71.8782730102539 0.0 0.0 71.41390991210938" Properties=species:S:1:pos:R:3 pbc="T T T"
Rb      17.26364106       1.07071575      69.69878067
Rb      29.61563920       2.38872790     176.77783773
N        6.47685577       0.44047754      81.02497573
Rb      24.68036829       1.56851422     137.14347699
Rb      26.63743047       3.16078421     135.11701006
Mg       9.29535175       1.37786528      95.73573887
8
Lattice="6.402073860168457 0.0 3.4536733627319336 -0.09907668797406878 6.697820812404898 3.100525379180908 0.0 0.0 8.5316162109375" Properties=species:S:1:pos:R:3 pbc="T T T"
Tl       2.05164946       4.27905954       8.19084545
I        1.72444738       0.07665534       7.27712012
Rb       3.17670739       3.56214604       3.80511902
I        3.43521835       6.58570512       6.02512428
I        5.75685110       4.58841488       9.59823685
Rb       5.29457464       1.03200125       8.45123283
Ag       5.92362314       5.35041443       6.75356424
I       -0.01100640       2.76690194       2.02708880
12
Lattice="79.97164154052734 0.0 1935.687255859375 -95.37300722568943 148.0891132464053 1820.848876953125 0.0 0.0 1671.8165283203125" Properties=species:S:1:pos:R:3 pbc="T T T"
Pb      -7.18699703     107.91473205    3465.56960050
W       45.54626738      44.67348008    3357.97962538
Rb      51.41417385      38.77259283    2878.58423798
Se      45.13579647      32.74751473    3211.54280206
Rb       8.67245451      74.53119571    3716.84815634
F       28.07170761       2.73576870    1945.57797139
Rb      59.46646184      13.86774638    2163.64530977
K       45.38916242      52.55596163    3448.89777461
Hf     -53.90147417     117.42703791    2495.39486281
Be      -1.47780445     101.56014293    3600.09067302
Rb      -8.15878865     116.95366550    3771.49587716
Sm     -47.31512683     118.10470657    3478.33124342
16
Lattice="14.178199768066406 0.0 23.18398666381836 8.351859067637976 11.51425965403562 20.818872451782227 0.0 0.0 33.236610412597656" Properties=species:S:1:pos:R:3 pbc="T T T"
Pr      11.64414304       7.09073255      32.79275675
Pr      17.95383155       6.41428176      45.03080149
Al      15.23497942       7.31517296      62.42850208
Tl      12.43125003       9.91628190      58.85711165
Pr      19.38156520       7.32356439      61.03642930
Pr       7.55149345       3.46735520      43.08358567
Pr       0.45982353       0.18352708       6.21528080
Tl       4.97534478       5.82035346      13.03226238
Al      10.00022273      11.02365501      42.40585072
Rb      14.01082755       2.06495023      50.73905520
Tl      11.69212913       0.25979775      32.99229830
Tl       6.35217184       4.65404439      30.82031164
Rb      14.17618335       9.47104054      49.83717306
Cs      10.90309343       2.82823760      23.15005851
Al      11.75740844       4.13977018      41.76160228
Pr       5.28761232       0.53098480      19.32341686
