12
Lattice="4.665515422821045 0.0 -1.905657172203064 -0.777597354665147 4.600178515310122 -1.9107908010482788 0.0 0.0 6.668854236602783" Properties=species:S:1:pos:R:3 pbc="T T T"
Y       -0.52151604       4.59853912       2.60011484
As       2.19865697       2.29804104       2.60743201
O        3.40026713       1.50474242       3.55159132
Y        3.55727261       1.14880014      -0.72826373
O        1.61338752       3.81706942       3.15457266
O        2.94919153       2.62477674       1.09137461
As       0.83737470       3.44817314      -0.72967645
O       -0.36395022       4.24340646      -1.67473452
O        0.09085834       3.12386569       0.78347031
O        1.42574430       1.92896599      -1.28462415
O        2.19731037       4.50157194      -0.74689352
O        0.83572540       1.24919520       2.61999092
4
Lattice="3.2103419303894043 0.0 0.01703793741762638 0.009181041298217311 3.2097396675222623 0.011006321758031845 0.0 0.0 6.512398719787598" Properties=species:S:1:pos:R:3 pbc="T T T"
Hf       0.24924533       1.02869301       1.98939745
Er       0.25069954       1.02978667       5.24485133
Fe       1.85872745       2.63353157       3.48388760
Fe       1.85897331       2.63419141       0.52470695
14
Lattice="4.806111812591553 0.0 -1.4800422191619873 -0.8878169488370993 6.2786511296558 -2.861044406890869 0.0 0.0 8.571688652038574" Properties=species:S:1:pos:R:3 pbc="T T T"
H        2.19198748       1.28940603       1.41571002
Br       0.78295524       4.25205985      -0.30284123
H        0.08140538       5.58383341       3.05332757
H        1.07376085       2.31211523       0.63999621
H        0.56701719       1.22650319       1.89311283
Rb       2.54663295       3.21999380       5.44209029
H        3.85950241       4.31460117       1.14203740
Br       2.98254275       0.04684357       6.84656205
H        0.99619994       0.65623045       0.33846373
N        1.21119078       1.33506554       1.08290835
N        3.89831026       5.33616314       1.29099264
H        3.25814240       5.59481202       2.10317737
H        3.63531024       5.89210459       0.44523130
Br       4.27067326       2.07330576       2.50664815
5
Lattice="3.67976713180542 0.0 -1.1528486013412476 -0.36392567522698893 3.659007795725412 -1.1567243337631226 0.0 0.0 6.444121837615967" Properties=species:S:1:pos:R:3 pbc="T T T"
In       3.17192477       1.70944148      -0.14755838
Si       0.50350282       0.79407505       4.22661233
Si       2.16098015       2.62562609       3.07617529
Pt       1.92415347       0.33365130       2.32655336
Pt       0.73841071       3.08592212       4.97569558
4
Lattice="4.025793075561523 0.0 -1.653281807899475 -0.688001902447724 3.9808185294535283 -1.6733145713806152 0.0 0.0 5.704442977905273" Properties=species:S:1:pos:R:3 pbc="T T T"
Ce       0.04713920       0.21746096       0.29165797
Ce       2.89183922       1.20827890       1.48134108
Ga       0.53773935       3.20164283       1.47099572
Ga       1.71351470       2.20539443      -1.37215631
6
Lattice="3.4267826080322266 0.0 -0.013300299644470215 -0.022153953868617793 3.4244052009632986 -0.011431841179728508 0.0 0.0 10.740047454833984" Properties=species:S:1:pos:R:3 pbc="T T T"
Y        2.75105784       3.37595101       0.31126984
Y        2.75100630       3.37447672       7.66378893
Os       1.05044829       1.66461925       2.08177156
Y        2.75068209       3.37461388       3.70813464
Os       1.04711019       1.66087790       9.31499967
Au       1.04935382       1.66265938       5.69510168
4
Lattice="4.599704742431641 0.0 -2.0196077823638916 -0.3489919878222563 5.053679473845828 -2.4955265522003174 0.0 0.0 6.979167938232422" Properties=species:S:1:pos:R:3 pbc="T T T"
P        4.13019778       0.61221246       2.23691885
Cl       1.31703144       1.14973960       5.11312752
Cl      -0.21601403       4.77969779      -0.00956295
Cl       3.46153120       2.46046545       1.53601927
5
Lattice="3.563999652862549 0.0 -0.49676910042762756 -0.0805534462304 3.560084599037717 -0.49437370896339417 0.0 0.0 13.14095401763916" Properties=species:S:1:pos:R:3 pbc="T T T"
Tb       0.90082812       2.40828867       1.76533065
Tb       1.59851084       3.12369582       6.84829809
Tb       0.20197679       1.69548814       9.82682218
Nd       2.37384181       0.27055406      12.36308323
Nd       3.07381775       0.98586592       4.30717852
6
Lattice="3.8596348762512207 0.0 -0.006691472604870796 -0.000359743606051155 3.864427549783866 -0.009176384657621384 0.0 0.0 6.737942218780518" Properties=species:S:1:pos:R:3 pbc="T T T"
H        0.82090318       1.79925426       3.94967701
S        0.81749962       3.72616727       6.30765165
H        2.75036935       3.72909025       3.93530675
Ca       2.75153137       1.80124207       5.41364629
Ca       0.81954454       3.72941618       2.69257973
Cl       2.74982642       1.79658683       1.74633015
10
Lattice="3.042029857635498 0.0 0.002902424428611994 0.0038539268121936944 7.180488505856341 0.007434740196913481 0.0 0.0 7.167477130889893" Properties=species:S:1:pos:R:3 pbc="T T T"
Zn       2.41643627       7.14865800       5.02692689
Zn       2.41304283       1.73791649       6.78038968
In       2.41408273       4.44363713       5.90594853
Rh       0.89467951       6.79079719       7.15257601
Zn       2.41573116       5.32852069       1.44058991
Rh       0.89513553       5.68559827       3.56800149
In       2.41311202       0.85437265       2.31639455
Zn       2.41371792       3.56191706       3.19614572
Rh       0.89259639       3.19963447       1.06450173
Rh       0.89284562       2.09951323       4.64799329
6
Lattice="5.102835178375244 0.0 0.0011744145303964615 0.0015650934019223884 4.849991545872883 -1.5242384672164917 0.0 0.0 8.515466690063477" Properties=species:S:1:pos:R:3 pbc="T T T"
Ca       2.03792699       0.36909219       0.25163332
Ca       4.58948602       1.24425384       3.06228514
Ca       4.59013845       2.75800641      -0.62064623
Ca       2.04000154       3.63282094       2.17751362
Bi       4.59382715       4.42607097       4.72084249
Ca       2.03950608       1.99989907       5.47798680
20
Lattice="8.197038650512695 0.0 -3.191704034805298 -4.646931310805485 6.780782547375162 -3.1279022693634033 0.0 0.0 8.676535606384277" Properties=species:S:1:pos:R:3 pbc="T T T"
Cs       4.50591737       3.21734027       0.43500694
F        0.97785557       1.96840487       4.84883645
Cs       6.42802343       0.32853680       5.41126272
F        3.06602796       5.21764658      -4.49355620
F       -0.72705160       4.87136269       2.09000603
Cl       0.27694040       3.27273508       5.80978043
Br       3.96825995       3.34435594       4.37382789
Br       0.27476472       3.34451781       1.48572769
F        3.99392216       3.93253407      -2.41736194
F       -1.16652728       2.13693245       2.19579787
Cs       2.10905514       6.44844078      -1.87322255
Cl      -2.03489996       6.69115830       4.28634536
F       -3.78553708       6.18448755       3.90994496
Cs      -2.31577653       6.42848063      -0.26866142
F        1.72637199       4.53616225       0.76032954
F        4.43020421       1.67700048       3.23833908
F       -0.36060571       4.68436391      -1.83634523
F       -1.20565299       2.48664508       5.98141744
F        4.35891614       0.45517847      -0.90029035
F        1.26482708       1.82751700       0.87354830
6
Lattice="4.272663593292236 0.0 1.134953260421753 1.9879416018218024 3.7821710846595056 1.133679747581482 0.0 0.0 8.62229061126709" Properties=species:S:1:pos:R:3 pbc="T T T"
Pr       2.51984118       0.47769951       1.93646640
Pt       2.85838419       3.26317268       9.28323730
Pr       3.49065825       1.06466306       6.89537818
Pt       1.78328236       0.03310524       4.71397000
Li       1.86360453       2.66248183       4.41949305
Li       5.07433907       2.02082990       9.55048194
6
Lattice="4.281726360321045 0.0 -0.0033363034017384052 -0.011236364458008751 4.637575842399001 -2.691636562347412 0.0 0.0 5.368769645690918" Properties=species:S:1:pos:R:3 pbc="T T T"
Ce       3.25711614       3.66282452       2.98826893
Zn       1.12105231       1.34392547       4.33654082
Zn       1.12084487       1.34474907       1.65063605
Zn       1.11557447       3.66377458       0.30474233
Zn       3.26006548       2.12101169       0.30190279
Zn       3.26405819       0.57190647       2.98987976
8
Lattice="4.188961505889893 0.0 -1.3642807006835938 -0.44915772711135543 4.166940568047005 -1.3669873476028442 0.0 0.0 7.100122451782227" Properties=species:S:1:pos:R:3 pbc="T T T"
Ni       2.18981427       2.52079198       3.45652065
Nb       3.12282234       3.56002406      -0.77908854
Ti       2.84131133       0.91421094       5.45514715
Ti       0.52257846       2.99758076       5.45163287
Ti       1.53613154       4.12783934       1.46364497
Nb       1.25434478       1.47785772       0.59155265
Ti       3.85535103       2.04243761       1.45924061
Ni       0.31900393       0.43704449       4.82395540
7
Lattice="4.484881401062012 0.0 -0.0031144716776907444 -2.2147511565114404 4.978406727070712 -2.0776760578155518 0.0 0.0 6.744263172149658" Properties=species:S:1:pos:R:3 pbc="T T T"
Zn      -1.62936160       3.67883111       1.82923128
Dy       2.83998272       0.98004299       4.17594409
Dy       0.60971183       3.06834571      -0.28050877
Zn      -1.62530525       4.51287605       4.28439301
Zn       0.59589974       0.37049802       2.07258204
Hg       0.60794620       2.95153255       3.29895185
Hg       2.84294376       1.09890920       0.59795271
5
Lattice="4.800621032714844 0.0 -1.7142707109451294 -0.6070213844068347 4.761383847537528 -1.7211307287216187 0.0 0.0 7.492846965789795" Properties=species:S:1:pos:R:3 pbc="T T T"
Tl       2.98905004       3.24702956       0.34952375
Tl       3.87265530       1.52529168       2.80748674
Tl       1.17123288       3.90391810       2.80086676
Sr       0.42589250       0.33756871       0.77813428
Tl       2.05241260       2.18391353       5.25990219
8
Lattice="4.253695964813232 0.0 0.0003273877955507487 0.0020182842928518504 4.572248490243436 -2.643224000930786 0.0 0.0 5.283344745635986" Properties=species:S:1:pos:R:3 pbc="T T T"
Ni       0.30651607       1.16924300       1.71372727
Ni       2.43438782       2.64690917      -1.01012977
Ni       2.43483490       2.64709476       1.71317364
Ni       2.43306480       0.42970359       2.99437980
Ni       0.30647222       1.16884620       4.27107614
Ni       0.30807064       3.38450662       2.99147482
Sb       0.30884283       3.43282243       0.34775131
Sb       2.43281149       0.38600310       0.35256782
10
Lattice="6.947177886962891 0.0 -3.4271297454833984 -4.245108480615273 6.409138954973196 -0.8439928293228149 0.0 0.0 7.7444353103637695" Properties=species:S:1:pos:R:3 pbc="T T T"
Pt       0.08140332       0.51412503       5.48694537
Cs       0.37369153       5.32374078       5.07532360
Cl      -0.95799012       2.08132971       7.17113620
Cl      -3.30376434       5.61961326       6.38652106
Cs       2.49147227       2.11454931       1.62915231
Cl       0.81823535       5.61734754       1.20989272
Cl       2.04668006       1.82143917       5.49711198
I       -2.04129598       3.72121919       1.19443898
Cl      -0.77927454       1.81713272       3.74449636
Cl      -3.12223219       5.35045276       2.95550284
11
Lattice="4.342574119567871 0.0 -0.011554727330803871 -2.177450754969016 4.594985002914644 -1.543648600578308 0.0 0.0 6.136117935180664" Properties=species:S:1:pos:R:3 pbc="T T T"
Ta      -0.20360031       3.35151130       4.46000684
Ta       1.96797377       1.70938705       2.78911280
Ta      -0.20322076       3.32645654       1.27181307
Ta       1.96758066       1.73351048      -0.14955994
N       -0.20480910       1.78251133       2.88332760
N        1.96954361       0.23293065       4.39599330
Ti       4.14166823       0.23528955       4.38875739
N       -0.20220614       1.73106512      -0.22869959
Ta       4.14126484       0.23418100       1.32403087
N        1.96835922       3.28011152       4.36440443
N        1.96681999       3.33176520       1.34595970
9
Lattice="5.640030860900879 0.0 -2.441068649291992 -1.3560700189553365 6.082922447843979 -3.166365385055542 0.0 0.0 7.665732383728027" Properties=species:S:1:pos:R:3 pbc="T T T"
Au       4.72821098       0.19380369       3.28460873
Au       0.98320414       5.05380290      -1.18870010
Au       2.00251697       4.01980496       1.15683363
Au       2.52312713       1.70238275       2.36831228
Cs       4.56374985       2.14109714      -0.62427217
Au       0.41396737       2.61579030       5.18621652
Au      -0.12618470       5.08874635       3.91788714
Cs       3.36869193       4.43122632      -3.40737975
Au       1.69946708       0.19927655       4.60736392
5
Lattice="4.032167434692383 0.0 -1.4443135261535645 -0.5215381402987308 3.997476264723605 -1.4521821737289429 0.0 0.0 6.368038177490234" Properties=species:S:1:pos:R:3 pbc="T T T"
La       0.15791877       2.35089799      -0.58118132
Ti       1.29783467       1.35306206       2.60906852
Ga       2.83638851       0.80515390       0.54576180
Zn       3.05260235       3.35182938       1.15688332
Ga       1.51415392       3.89673935       3.21887207
11
Lattice="5.3908209800720215 0.0 -0.8986181020736694 -0.8827514469992086 5.320022945760929 -0.9856614470481873 0.0 0.0 7.255600452423096" Properties=species:S:1:pos:R:3 pbc="T T T"
Hg       2.39850396       2.92073268       6.15022173
Hg       0.63540034       0.00334164       3.02714455
Hg       4.94227143       1.15610725      -1.03344848
Cu       4.02884084       2.79290633       1.12971323
Hg       3.11397609       4.41757228       3.28951334
Pd      -0.35280437       3.93195655      -0.41703664
Pd       3.02442286       1.64767507       3.58144919
Hg       0.27018475       2.66473465       4.25212266
Hg       2.92374748       0.25684665       1.12416747
Pd       1.33171970       2.78936910       1.57615459
Pd       1.77577375       0.13334590       5.70517927
6
Lattice="4.109990119934082 0.0 -0.4261415898799896 -0.0042491802178336495 4.125681119460202 -0.014965830370783806 0.0 0.0 12.875510215759277" Properties=species:S:1:pos:R:3 pbc="T T T"
As       0.90086148       3.09369131      10.64805827
Cs       0.40852056       3.08067752       5.92444197
Cs       3.18337832       1.03696284      -0.33014240
As       2.68924249       1.02527905       7.81780323
Rh       2.82196895       3.09341466       9.13410656
Rh       0.76693420       1.02854541       9.33292658
10
Lattice="4.528273582458496 0.0 2.3892767429351807 1.6430005320734156 4.217270195034602 2.384894609451294 0.0 0.0 5.511930465698242" Properties=species:S:1:pos:R:3 pbc="T T T"
Mn       4.45241697       1.72442001       6.19707055
Rh       2.55854610       0.42647595       4.29921939
Ni       2.98574219       3.81362278       3.49653466
Rh       1.13116931       2.54695659       7.02503357
O        2.52123252       1.30340552       6.17690172
O        4.47209160       2.90998982       7.78210801
O        0.55815337       0.07305767       4.69834153
O        1.86506207       2.14759652       3.41926158
O        4.56158017       0.84673995       4.37735569
O        4.15556370       3.37612754       5.07733709
12
Lattice="4.049478530883789 0.0 0.00918532907962799 0.012156881153942508 5.140228200821728 0.004126746207475662 0.0 0.0 8.639945983886719" Properties=species:S:1:pos:R:3 pbc="T T T"
Pr       1.73134362       0.97682250       0.69340023
Ni       3.75904842       2.26246482       2.85452943
Pr       1.73695199       3.54708956       5.00967887
Ni       1.73287403       0.97718702       6.46508570
Ga       3.75559920       0.97672699       5.01081027
Ga       3.76216046       3.54830590       0.69430013
Ni       3.76501210       4.83294045       7.17720569
Ni       1.73793823       3.54775870       2.14964966
Ni       3.76546837       4.83144715       2.85526866
Ni       1.73387616       0.97677065       3.54218654
Ni       3.75894378       2.26118506       7.17438298
Ni       1.73905639       3.54771458       7.86595161
9
Lattice="6.913056373596191 0.0 0.0009770810138434172 -0.005873830198440081 6.075691244830215 -3.5073444843292236 0.0 0.0 7.016084671020508" Properties=species:S:1:pos:R:3 pbc="T T T"
Cd       4.30790607       3.42883488       1.17410591
Cl       5.86481640       3.62849175       3.33424224
Cl       2.74986590       1.46040497       2.07773844
Pb       4.30625955       5.45330214      -2.33125775
K        0.85211068       1.40458743       4.67814318
Cl       5.86524811       5.19622335      -0.07957857
Cl       5.87288765       1.45737070       0.26795129
Cl       2.74885529       3.63221382      -0.98701721
Cl       2.74562374       5.19859283       2.42954470
14
Lattice="6.16649866104126 0.0 -0.003392774611711502 -3.0629915422969143 7.69491909925907 -0.7097885012626648 0.0 0.0 9.038352012634277" Properties=species:S:1:pos:R:3 pbc="T T T"
Tb       1.56768245       1.70666964       3.41762990
Tm       4.61630650       2.77517214       1.98565470
Tm       2.59549223       7.22413573       0.95938684
Tm       2.50326012       0.61043780       0.28038414
Tb       2.52424647       2.78898630       6.58812487
Tm       1.48890184       3.92621530       0.62424431
Tb       2.56796259       4.98863113       3.78490643
Tm      -1.58720854       7.17291337       5.52479531
Tl      -0.52794525       1.70308206       7.96216273
Tm       4.61535545       0.62602924       4.84618964
Tb       1.53894163       6.18656880       6.90088628
Tm      -1.53649648       4.94291627       8.28721122
Tb      -0.51889268       6.10496206       2.34951647
Tm      -0.49228856       3.87649182       5.18148271
11
Lattice="4.858580112457275 0.0 -1.3056399822235107 -0.5014679135856854 7.836455255156666 -1.9785575866699219 0.0 0.0 9.57394027709961" Properties=species:S:1:pos:R:3 pbc="T T T"
Sm       3.77477107       0.91301305       8.05149409
Sm       0.03945393       3.64611808       3.86716135
In       4.68960654       0.19784316       1.84822676
Nd       0.99294726       3.06509540       7.37169471
Sm       2.10908428       5.89195339       1.84754829
Sm       0.24348120       7.31786908       4.54358995
Sm       1.90887183       2.33643495       1.17242806
Sm       1.19148024       6.65827570      -1.53501655
Sm       3.97746807       4.58089772      -0.84421898
Nd       3.02353766       5.16682928       5.22664923
Sm       2.82557996       1.57407998       4.55750626
6
Lattice="4.237283229827881 0.0 0.0012156472075730562 -2.111811366246628 3.670840634879349 0.002440743613988161 0.0 0.0 11.073493957519531" Properties=species:S:1:pos:R:3 pbc="T T T"
Pr       0.34149654       0.80843798       1.35964363
Zn       2.46244648       2.03149543      10.15514821
Cl       2.46204004       2.03010255       3.01585493
Cl       0.34663047       3.25682297       6.51665569
Pr       0.34056596       0.80819205       8.16556752
Zn       0.34410524       3.25594559      10.44777252
5
Lattice="5.262640476226807 0.0 0.0001898587215691805 -0.0003994285936071139 5.265436157335305 -0.00032474534236826 0.0 0.0 5.4123640060424805" Properties=species:S:1:pos:R:3 pbc="T T T"
In       2.09749750       1.90251330       5.40527446
Rb       4.72836126       1.90148608       2.70236700
Cd       2.09510169       4.53360080       2.70205741
In       4.72737926       4.53382143       5.40694749
Pt       2.09630949       4.53386380       5.40375559
8
Lattice="4.236494064331055 0.0 -0.003346006153151393 -0.003937402985835122 7.017577497243653 -2.121181011199951 0.0 0.0 8.429760932922363" Properties=species:S:1:pos:R:3 pbc="T T T"
Cs       0.33982421       3.57044493       4.02035266
S        0.34350657       1.89872426       7.17368604
Cs       2.46137623       0.06153912       5.07903518
S        0.34252289       5.24753401       0.86559605
Tb       0.34512755       0.06324290       0.86433996
S        2.46024269       5.54857697       6.09097901
La       2.46149611       3.57250663      -0.19877389
S        2.46207868       1.59494564       1.94276288
10
Lattice="4.2392802238464355 0.0 0.00381933874450624 0.003226310720112256 4.241165841333092 0.00017525313887745142 0.0 0.0 11.094521522521973" Properties=species:S:1:pos:R:3 pbc="T T T"
Na       1.27261756       2.37277976       2.64630566
Na       3.38817902       0.25073978       8.30499351
Ga       1.27207938       0.25029132       5.34403794
Ga       3.39216811       2.37195591       5.34102070
Ag       1.27254628       2.37190738       7.02936281
Ga       3.39096869       0.24984734       1.46522375
Ag       1.27086690       0.25096302      11.04708217
Ga       1.27230496       2.37107164       9.58659999
Pt       3.39352393       2.37320041      11.05424146
Pt       3.38999722       0.25128238       3.95750679
15
Lattice="5.709577560424805 0.0 -0.0008469591266475618 -2.857958788163728 4.943803487902412 0.002131139626726508 0.0 0.0 6.99532413482666" Properties=species:S:1:pos:R:3 pbc="T T T"
Sr       1.87232772       3.92980641       4.43236766
Sr      -0.98141844       2.27970498       6.80346292
Fe       1.87329559       3.92900755       0.93514370
O        0.43701314       4.75880825       6.74707598
Sr       1.87498573       0.63493634       2.05579964
Ta       1.87486426       0.63417925       5.64310507
Ta      -0.98159777       2.28049986       3.21872014
O        0.43745480       3.10087882       2.11684552
O        4.72883347       0.64592383       2.11550504
O        3.30185055       1.45838513       4.43085561
O        1.87288660       2.27164065       6.74471073
O       -0.98172121       3.92954592       4.43176565
O       -2.40169470       4.75876405       6.74682035
O        0.44745513       1.45738766       4.43004284
O        3.30977350       3.10086497       2.11649594
18
Lattice="4.23497200012207 0.0 -0.0015414862427860498 -2.123631392652372 9.113009766999339 -0.008162249810993671 0.0 0.0 12.949422836303711" Properties=species:S:1:pos:R:3 pbc="T T T"
Ba      -0.07901533       4.43090183       4.07551466
S        2.03641822       6.39924993      11.64153605
Ba      -0.07982063       4.14745405      12.16892473
Ba      -0.08247132       8.77889029       5.68540373
Hg       2.03672896       7.18288644       1.05615923
Ce      -0.07925315       2.68401543       8.30768284
Hg       2.03574890       5.74346877       7.52538870
S        2.03735694       2.60063140      10.08861407
Ba      -0.08273656       8.49451938      10.54771770
S        2.03831038       3.79025658       1.71528876
S       -0.07580489       1.21748748       3.61279510
Ce       2.04087527       1.12704839       1.83039174
S       -0.07708503       0.91789245       0.00821115
S        4.15666026       0.02553767       8.19502696
S       -0.08024544       5.40551283       8.93346009
S        2.03746660       2.88317479       6.48912842
S        2.03694379       6.52105916       5.17086603
S       -0.08173688       7.52846207       2.45944691
12
Lattice="7.724867820739746 0.0 -1.1770344972610474 -4.130479425332054 6.528717845715213 -1.181441068649292 0.0 0.0 8.641160011291504" Properties=species:S:1:pos:R:3 pbc="T T T"
K        1.94547475       1.63828802       7.05999661
Tb       3.74311918       4.90324058       1.56341111
Y        3.92077549       0.55279583       2.74299634
Te       0.91265063       4.44815196       0.30992426
K        1.76573250       5.99206586       5.88169552
Te       2.79294293       3.17839242       3.99524316
K       -2.00891502       3.81561190       7.05853202
Te       1.09693089       0.09872634       1.48644665
Y       -0.02930660       2.72882806       2.73953319
Te       4.87059192       2.26767232       0.31073847
Te      -1.15017994       5.35903704       3.99195664
Te       6.74474174       1.01253275       3.99435547
19
Lattice="7.655014514923096 0.0 -2.66990065574646 -3.704632014235187 6.563855100118429 -2.5827219486236572 0.0 0.0 7.966644287109375" Properties=species:S:1:pos:R:3 pbc="T T T"
Au       3.20149887       3.26221355      -0.97223766
Cd       4.96514230       4.51817464       1.30996012
Au       5.71519574       2.02555390      -0.54949512
Sr       3.72078677       0.70705658       5.08858889
Au       0.71693752       1.01507605       2.63208544
Au       1.90110110       0.85262224      -0.17793260
Au       1.56051347       2.96316508       4.67756986
Au       2.73590933       2.80817234       1.86217791
Au       3.19461527       6.48859024      -4.86521892
Au      -2.23754433       5.00380485       1.13346200
Au      -0.12598382       5.18697892       4.94501434
Au       0.26609590       0.55798285       5.47160840
Au       1.98702248       5.38427937       0.78204598
Sr      -0.26304162       3.10561928      -0.58046894
Au       5.39220753       1.78712534       2.38001822
Au       4.21550163       3.89449867       4.10869990
Cd       2.44547124       5.86594949      -2.06931552
Au      -0.35876982       6.38482031      -0.49396133
Au       0.10647491       3.99668684       2.41903533
16
Lattice="7.994030475616455 0.0 4.174893379211426 2.9006612883569707 7.451263184113869 4.168951988220215 0.0 0.0 9.70768928527832" Properties=species:S:1:pos:R:3 pbc="T T T"
Ba       4.63163542       3.52706600       5.59803685
Br       2.02829554       1.74560858      10.56354324
Ba       3.45134296       0.03493978       7.84792812
Ba      10.07495876       7.24982896       9.86717345
Ba       8.59829550       3.45360270       7.74555784
Ba       6.00494119       7.24819945       7.74528755
Ba       8.94484278       3.69148200      12.02092766
Ba      10.31985014       7.41601037      14.16747716
Br       3.47740119       5.47219195      12.65161842
Rh       3.47962028       5.47208758       7.79466289
Rh       2.02725860       1.74511993       5.71257076
Rh       6.02383281       1.74679974       7.79950999
H        7.47727107       5.47495399       9.88546337
Ba       4.87551683       3.69254836       9.89587250
Br       7.47572582       5.47250595      14.74272091
Br       6.02474800       1.74737345      12.65212662
12
Lattice="4.169480800628662 0.0 -0.00783604010939598 -0.0037587663101802046 5.715064243218737 -0.011510641314089298 0.0 0.0 8.501007080078125" Properties=species:S:1:pos:R:3 pbc="T T T"
Cd       0.24748322       5.01386415       2.06503821
Cd       2.33415085       3.36062707       0.51471661
Pd       2.33521061       0.54126496       0.62129879
Cd       2.33542738       0.50791302       6.31943951
Pd       2.33417603       3.40320455       6.21434701
Pd       0.24990556       2.11617908       1.97097826
Pd       0.24997593       1.89912185       7.64207710
Pd       2.33527721       0.76345396       3.45386717
Cd       0.24946451       2.15522613       4.77445648
Pd       0.24794827       4.75791623       7.69809075
Pd       0.24709963       4.97418998       4.86854285
Pd       2.33295552       3.61824142       3.38576884
10
Lattice="5.263433933258057 0.0 -3.042027473449707 -1.7897101470036032 4.935423101811204 -3.052123785018921 0.0 0.0 6.114297866821289" Properties=species:S:1:pos:R:3 pbc="T T T"
Ba       3.68005825       3.74399606      -2.73099103
Ba       1.94646682       1.28334704       0.31581480
Sr       0.18155467       2.51353506       3.37088694
Mo       3.70764407       0.04790089       3.37615328
O        1.55606880       3.61613445       1.66362853
O        4.48692565       1.15195917      -1.36433994
O        4.07109500       1.41304975       2.03302591
O        1.14065264       3.87587610      -1.04818477
O        3.66208919       4.17357327      -0.02282327
O        1.96157207       0.86107294       3.72026057
4
Lattice="4.403769016265869 0.0 2.544957160949707 1.4692906273369886 4.152472959155693 2.5445330142974854 0.0 0.0 5.088617324829102" Properties=species:S:1:pos:R:3 pbc="T T T"
Sc       2.18561800       0.27815159       2.69967090
Y        5.12161453       2.35422657       7.78876878
Ag       2.18565996       3.39141221       2.69946184
Hg       3.65471227       1.31635856       5.24608575
8
Lattice="4.164722919464111 0.0 -0.024475622922182083 -0.02313607111343651 4.174117343146906 -0.014393852092325687 0.0 0.0 7.3737006187438965" Properties=species:S:1:pos:R:3 pbc="T T T"
Al       1.56893017       3.56199292       3.17078808
Zn       1.57044565       3.56087358       6.85173586
Zn       1.57941486       1.47250101       1.23449492
Sc       3.66315350       1.47429820       3.16136250
Al       3.66179138       1.47497891       6.84776092
Zn       1.57975737       1.47436848       5.10586310
Zn       3.65384869       3.56269179       5.09215421
Zn       3.65117371       3.56152369       1.21985599
9
Lattice="5.013710021972656 0.0 -0.003765011439099908 -2.5096195712916938 4.340665685528292 -0.001373154460452497 0.0 0.0 9.951582908630371" Properties=species:S:1:pos:R:3 pbc="T T T"
Yb       3.69084924       0.20919761       9.51995283
Yb       1.18337399       1.65776587       1.32910425
Ge       1.18383360       1.65601728       7.76021404
Yb       3.69153482       0.20941722       6.13189315
Al      -1.32351668       3.10437660       4.25994492
Al       1.18297432       1.65514060       4.83610400
Yb      -1.32301991       3.10264082       7.77895216
Ge      -1.32398350       3.10413780       1.33614744
Yb       3.69210917       0.20931439       2.96374214
10
Lattice="4.2688798904418945 0.0 0.005107546225190163 0.006064239867536131 4.266833764330498 0.004397066310048103 0.0 0.0 11.66562271118164" Properties=species:S:1:pos:R:3 pbc="T T T"
Zn       2.46896077       3.45319233       5.01010617
Zn       0.33564363       3.45171141       0.83841675
Zn       2.46625400       1.31882021       9.17231629
Ce       0.33475290       3.45219793       7.80757482
Ce       2.46637070       1.31947052       2.19766861
Cd       2.46994062       3.45281949      10.84539471
Zn       0.33234537       1.31888417       5.00274372
Au       2.46691915       1.31991126       6.59901801
Au       0.33262868       1.31945805      10.83059451
Au       0.33396896       3.45231593       3.41630341
12
Lattice="6.418567657470703 0.0 0.007825707085430622 -0.0616782584708919 6.276869062089811 -3.2921180725097656 0.0 0.0 7.698552131652832" Properties=species:S:1:pos:R:3 pbc="T T T"
Cl       3.26621210       4.47412774      -0.28431038
Na       1.66409629       4.39389020       4.98629729
Na       1.68291095       2.48196430       1.28754303
Na       4.87441744       4.39317262       4.98888077
Te       3.31838144       0.73711767       6.90124153
Na       4.91614047       0.03104386       4.26830523
Cl       0.10417226       0.06426743       2.03618246
Cl       3.28484940       2.44795434       3.52781448
Na       1.70668595       0.03743575       4.27058244
Cl       0.06378685       4.32461095       2.54861142
Na       4.89026385       2.48520222       1.29988327
Te       0.07859059       1.77860261       6.35803831
4
Lattice="4.786128520965576 0.0 -0.024106191471219063 -0.019818363084801276 4.807395139206842 -0.030734926462173462 0.0 0.0 4.808557987213135" Properties=species:S:1:pos:R:3 pbc="T T T"
Lu       2.81102619       3.33206334       4.21124145
Lu       2.82097486       0.92466750       1.82109249
Nd       0.42650864       0.92376088       4.23654538
In       0.41759042       3.33185731       1.81832056
16
Lattice="5.248877048492432 0.0 0.0014651949750259519 -0.0027617350956532427 8.9726539176277 -1.5871222019195557 0.0 0.0 10.413897514343262" Properties=species:S:1:pos:R:3 pbc="T T T"
Pr       3.16033304       2.65581601       8.76667943
Cs       3.15371482       7.93637895       2.23743936
Cs       3.15635057       7.18446237       7.25938242
Sc       0.53320500       0.83979492       6.51139677
Sc       0.53201993       1.69820585       1.47684413
Pr       0.53382787       4.37649613       4.57761249
S        3.15708075       1.66929913       1.16562379
S        0.52736564       7.29879016       4.92944481
S        0.53437999       1.40667082       3.98619175
S        0.53380216       4.17300958       1.69739042
S        3.15858127       0.86715356       6.63399907
S        3.15691069       5.17459130      -0.46451815
S        0.53197496       1.16139554       9.37244102
S        0.53505260       3.43893245       7.24256081
Sc       3.15843966       4.08889597       1.64310580
S        3.15583764       4.80442342       4.03839943
15
Lattice="5.509007453918457 0.0 0.21345864236354828 -2.6611277443389274 4.82269474079337 -0.2190365046262741 0.0 0.0 8.10501766204834" Properties=species:S:1:pos:R:3 pbc="T T T"
O        2.99064613       0.57045622       4.04286973
Sr      -0.69674507       4.48708211       1.24749104
Sr      -0.64440145       1.20711743       5.14729661
Sr       4.78884780       1.24521959       8.02807072
O       -0.99203052       3.14962266       3.83204090
Sr       1.96383975       2.91811560       3.39792047
Ir      -0.61819019       4.43770050       5.43160539
O        2.04913098       4.45135979       1.43905429
O        2.05883708       1.15386164       7.06102260
O       -1.96068747       3.68628104       6.85019960
Ir       2.02424799       2.87860376       0.04020962
Cu       4.58647987       1.36475890       2.65556465
O        3.28226915       2.13970771       1.45648723
O        0.63991003       3.70172197       6.99660011
O        0.65956448       2.10107648       1.44440621
9
Lattice="6.664388179779053 0.0 -0.7095528841018677 -0.5663798457810473 6.737794981542364 -0.705101490020752 0.0 0.0 6.777951240539551" Properties=species:S:1:pos:R:3 pbc="T T T"
Nd       4.24997395       4.72354712       5.09539740
Nd       4.99645920       3.38247090       1.69989007
Tb       0.73051859       5.46399624       4.03817337
Nd       2.14338505       2.15835799       3.64218599
Nd       2.88385509       0.81646168       0.25100824
Nd       1.33727206       4.07537654       0.53305849
Sn       3.28749311       6.13881204       2.31409696
Tb       6.40570844       0.07853568       1.31359152
Nd       5.80393213       1.46715324       4.80362676
4
Lattice="3.561505079269409 0.0 0.5520987510681152 1.7509857974804524 3.096198160091715 0.5520466566085815 0.0 0.0 11.854812622070312" Properties=species:S:1:pos:R:3 pbc="T T T"
Tb       2.58610882       2.22770167       2.17816738
Ho       1.70542505       1.72127042       7.93605691
Sm       3.90760261       3.00300817       5.43900897
Sm       3.05308906       0.42846212      10.96794750
4
Lattice="3.762005090713501 0.0 -1.5232477188110352 -0.6122946475162793 3.701672582544373 -1.5136094093322754 0.0 0.0 5.399474143981934" Properties=species:S:1:pos:R:3 pbc="T T T"
Ag       2.00792419       3.40531577       0.62004336
Cd       0.43226419       1.55662407       2.14075708
In       3.09989235       2.48003133      -2.08248027
Pt       1.52493066       0.63095302      -0.56391604
16
Lattice="7.397852897644043 0.0 3.6246445178985596 2.8153958686905294 6.8401921436978155 3.6225221157073975 0.0 0.0 9.371082305908203" Properties=species:S:1:pos:R:3 pbc="T T T"
Ho       7.02353005       3.99691577      11.02317962
Dy       3.32488275       3.99894411       9.21173636
S        4.70787125       2.44675746      11.08376776
Cs       1.92231913       0.58032761       2.71784181
S        8.39617545       2.44605396      12.88848318
Dy       1.91674792       0.57721395       7.39942655
Cs       3.32268458       3.99787429       4.52561904
Cs       7.02688379       3.99926171       6.33982335
S        7.93694749       2.13857891       9.15937745
Cs       5.61413698       0.57634049       4.52624110
S        4.23964789       2.13269467       7.34038930
S        9.33896572       5.54885779      10.96375467
Dy       5.61555358       0.57703109       9.21244907
S        9.80789404       5.86202791      14.70413439
S        5.65125682       5.54858055       9.15866077
S        6.11167904       5.85543202      12.88699511
10
Lattice="7.139828205108643 0.0 -3.561561107635498 -4.473367689295742 6.640954927515191 -0.019502149894833565 0.0 0.0 8.873518943786621" Properties=species:S:1:pos:R:3 pbc="T T T"
Sn       0.41651860       3.70234507       2.48267049
Sn       2.65474082       0.38486672       6.92596509
Ag       5.10892779       2.04798998       2.92085999
Ag       2.87341056       5.35689372      -1.51895211
I        3.55074622       4.35825215       2.91156866
I        0.45601016       2.04277272       5.24209558
I        4.43298500       3.04540784      -1.51374995
I       -0.29293500       6.37110929       4.15093576
I        1.12941155       1.03497813       0.80743255
I        0.38371600       5.36224735      -0.28486510
10
Lattice="4.975322723388672 0.0 2.8637442588806152 -1.6514236277097902 4.693892260241622 2.864964246749878 0.0 0.0 5.745613098144531" Properties=species:S:1:pos:R:3 pbc="T T T"
H        0.12969596       1.73667301       4.67956867
Pb       3.45010518       2.90856058       4.66965877
Rh       3.44808743       2.91014272       7.54219115
Rh       0.96066997       2.90765074       6.11020876
Rh       0.96008138       2.90921749       3.23740120
Pb       1.78843561       0.56145927       1.80621284
H        1.79352354       4.08419241       7.54364009
Rh       1.78785168       0.56152803       4.67883654
Rh       4.27384412       0.56222363       3.23729489
Rh       4.27331868       0.56260699       6.10889562
6
Lattice="4.110476493835449 0.0 0.00011791200813604519 0.0022782309124467753 4.108668172536324 0.003496442688629031 0.0 0.0 8.521977424621582" Properties=species:S:1:pos:R:3 pbc="T T T"
Se       2.21865524       2.78438460       5.51533379
Sm       0.16407270       2.77926750       3.17840569
Sm       2.21753975       0.72757559       7.85163307
Se       0.16308520       2.78334232       0.13322661
Se       0.16067215       0.72873456       5.51452611
Se       2.21710755       0.72800196       2.37779251
9
Lattice="6.685150623321533 0.0 -0.006791749037802219 -3.345680516607957 5.786577886821709 -0.0029771917033940554 0.0 0.0 7.397132396697998" Properties=species:S:1:pos:R:3 pbc="T T T"
K        5.19140639       1.37507689       0.24019531
Br      -0.32356053       3.52920004       5.37204189
Br       2.73931211       1.31129472       5.36939046
Cu       1.84709074       3.30493087       3.93743986
Br       4.02107795       3.53067176       2.50334648
Ru      -1.49415140       5.23202344       3.94135634
Br       3.12910025       5.07209803       5.36351758
Br       0.56696913       5.06975508       2.50762219
Br       0.95886507       1.30909214       2.51337601
10
Lattice="4.165523529052734 0.0 -0.023876480758190155 -0.020142758648451744 4.156975105796751 -0.025346197187900543 0.0 0.0 14.204651832580566" Properties=species:S:1:pos:R:3 pbc="T T T"
Ce       3.52171693       3.00005232      10.10012039
Ce       1.44887831       0.91675111       7.97338234
Ce       1.44573772       0.91429963      13.70059933
Sb       1.45137636       0.91968520       4.89998074
Ce       3.52310977       2.99637087       2.94172395
As       3.52045560       2.99785975       6.26908647
Sb       3.51859330       2.98949016      13.28343236
As       1.45085180       0.91285584       2.30820000
O        1.43569855       2.99674526       9.17088491
O        3.52928901       0.91886340       9.17148302
18
Lattice="6.517863750457764 0.0 -2.4788978099823 -3.2849621417029766 5.619214233577497 -2.283491849899292 0.0 0.0 7.027350902557373" Properties=species:S:1:pos:R:3 pbc="T T T"
Y        1.42488325       3.55674567       2.52971083
Al       3.06482332       0.74982177       0.15729426
F       -2.75920801       5.06406030       1.54970692
Zn      -1.83338523       3.56195653       0.25381206
Hg       3.05693664       0.75134068       3.67768645
F        4.70724020       0.74440618       1.29655206
F        2.31382667       2.05581851       1.17889072
Al      -0.19361315       0.74704862       4.91215360
F        3.77621654       2.05951263      -0.91698179
F        0.53573258       5.06446221      -3.15080877
F        2.36365133       5.05253766       1.21082539
F       -0.24900946       3.46328644       1.28561733
F        0.48052180       2.07150083       3.85106361
F       -0.91465653       2.05276276       5.99113274
Zn       1.42008670       3.55640906      -0.99312810
F       -0.92506187       5.06186415      -1.05717278
F        3.10027775       3.66054790      -3.26805413
F        1.42320547       0.75549039      -0.97931646
4
Lattice="3.9921810626983643 0.0 2.3007423877716064 1.3256678682682828 3.76481690593992 2.2992281913757324 0.0 0.0 4.606869220733643" Properties=species:S:1:pos:R:3 pbc="T T T"
Sc       0.78059778       1.40811304       4.42429747
Cu       3.44457524       0.46986297       4.42572522
Lu       3.44154491       3.29367017       4.42303187
Ni       2.11003384       2.35133115       6.72643326
10
Lattice="4.95334529876709 0.0 -1.453819751739502 -1.337489020038448 5.324277668937782 -1.6821051836013794 0.0 0.0 5.520328521728516" Properties=species:S:1:pos:R:3 pbc="T T T"
Na       1.89802964       0.63979562       2.90377179
C        0.27927071       0.50166521       0.06913703
P        2.61903916       3.75893861       1.72759136
O        4.07127559       3.44107980       1.43196610
O       -0.27024771       5.31589006      -0.75212889
O        0.63219855       1.36564441       4.74068688
Fe       0.62965690       3.39943723      -1.13713470
O        1.72014832       3.93901125       0.51899647
O        2.64982371       5.29231210       2.32500290
O        2.01765467       2.91805980       2.85868678
7
Lattice="4.042445182800293 0.0 0.0007973628817126155 0.003805789049471006 4.043799039947533 0.0018716569757089019 0.0 0.0 8.081123352050781" Properties=species:S:1:pos:R:3 pbc="T T T"
In       3.74330552       0.64166331       3.16875603
Pt       1.72264400       0.64129899       1.14440056
Bi       1.72462705       2.66350384       7.20973381
Pt       1.72212037       0.64176509       5.19807781
Pt       1.72473178       2.66392468       3.17029826
Pt       3.74633527       2.66427176       1.14682800
Pt       3.74561271       2.66354819       5.19759499
4
Lattice="4.3984551429748535 0.0 0.013764739036560059 0.012262662636439315 4.6669636794054465 0.022862516343593597 0.0 0.0 4.665823936462402" Properties=species:S:1:pos:R:3 pbc="T T T"
Sn       3.09353980       0.00273944       4.54673559
Dy       0.89397044       0.00396967       2.20719093
Ag       0.90080614       2.33657067       4.55205184
Sn       3.09938995       2.33736624       2.22669643
18
Lattice="7.04111385345459 0.0 1.3175714015960693 1.626648953431839 8.578475111569846 1.4152342081069946 0.0 0.0 9.487165451049805" Properties=species:S:1:pos:R:3 pbc="T T T"
Sm       0.93698207       4.57700470       9.75437983
Y        2.13757255       4.63559753       3.59428105
Sm       4.86126051       1.74526272       8.25256842
Sm       2.45552107       1.72143266       1.57367463
Sm       5.99487782       7.45281184       2.17727507
Sm       7.21785227       7.46394628       5.65577525
Sm       3.63607424       1.71401460       4.93635766
Sm       1.35393726       1.61733761       7.69713076
Sm       4.39877647       4.69696426      10.34181046
Ho       5.63494354       4.56408832       4.25963967
Sm       3.32361828       4.62180220       6.95829066
Sm       6.01594979       1.71857095       2.18232374
Ho       3.69505586       7.45531525       4.97587481
Ho       1.47157971       7.45466179       7.76005747
Cd       4.94101050       7.45354967       8.26932762
Cd       2.45365018       7.44847127       1.67914497
Ho       7.18887680       1.78691984       5.60191755
Sm       6.82114678       4.66156169       7.69747240
4
Lattice="3.184774398803711 0.0 -0.0013714521192014217 -0.00012077232178330412 4.463896749770039 -0.0019648487213999033 0.0 0.0 4.462499618530273" Properties=species:S:1:pos:R:3 pbc="T T T"
Ta       0.53830334       3.78829067       2.32904725
W        2.13086468       3.79094045       0.09563608
Ta       0.53820173       1.55743637       0.09710085
Cr       2.12988336       1.55657457       2.32748258
12
Lattice="4.24075174331665 0.0 0.007972142659127712 0.015948776203545657 11.266293681100201 1.0651662349700928 0.0 0.0 11.042004585266113" Properties=species:S:1:pos:R:3 pbc="T T T"
Nd       1.00943058       4.01887737       9.35790454
Nd       1.01648248       9.65215482       4.37771699
I        3.13252311       6.24019328      10.43839997
I        3.12689754       1.57077876       9.06280341
Nd       3.13621089       6.35527829       7.24347728
I        3.13470155       7.20659541       4.04481829
I        1.01814234       8.78819627       7.57589554
Nd       3.12971847       0.69730439       1.21380710
I        1.01947751       9.76230817       1.19601784
I        1.01033525       4.13512479       6.18130884
I        3.12316504       0.58738226       4.39822667
I        1.00971300       3.14905206       1.50903676
10
Lattice="5.064117908477783 0.0 0.006253405474126339 -2.4720970123885313 11.97831793776887 -3.538287878036499 0.0 0.0 14.411657333374023" Properties=species:S:1:pos:R:3 pbc="T T T"
Rb       0.35111801       2.16900791       1.91469724
K        2.91062385       4.54790179      12.67245715
Rb       0.38122619      11.85644653       9.13679216
K        0.39996412      11.81468895       1.94397911
K        0.33799081       2.21586051       9.09026412
K        2.92753433       9.45416536      -1.61725314
Rb       2.93843795       9.46856100       5.47456967
Rb       2.89263767       4.57283624       5.57742781
Rb       0.37461543       7.00798044       9.30858535
Rb       0.37871352       6.99639138       1.81129626
9
Lattice="4.157119274139404 0.0 0.0007481247885152698 0.0005803457985889878 7.206776118753377 -4.164129734039307 0.0 0.0 8.328890800476074" Properties=species:S:1:pos:R:3 pbc="T T T"
Ho       3.28856917       6.43533626       2.85145848
Ho       3.28788145       2.07067596       3.62238814
Ho       1.20741368       6.43297326      -0.22183815
Pb       1.20943531       4.02932336       1.97749897
Ho       3.28815717       3.58691539      -0.54342553
Ho       1.20805186       4.73002888       5.15959014
Ho       1.20739863       0.92594734       0.99443618
Ru       3.28719684       6.43098140      -2.18584581
Pb       1.21040487       1.62607392       6.14380416
4
Lattice="4.47110652923584 0.0 0.013479349203407764 0.013622672493292418 4.626419038339937 0.005350593943148851 0.0 0.0 4.639303207397461" Properties=species:S:1:pos:R:3 pbc="T T T"
Hg       1.08699344       2.10766205       0.71523206
Hg       1.09498758       4.42323066       3.04223144
Sc       3.32530816       2.10655338       3.04345974
Tl       3.32989693       4.42058699       0.72842993
6
Lattice="4.03539514541626 0.0 -1.1180202960968018 -0.3085100978335481 4.013308955499474 -1.1122190952301025 0.0 0.0 7.844385623931885" Properties=species:S:1:pos:R:3 pbc="T T T"
Ce       3.12355825       3.51945417      -0.00593013
Ce       2.34697629       0.51089205       5.03415905
Al      -0.13819987       2.18181210       3.90611193
Si       1.57089821       1.84569755       2.22810572
Si       0.48608493       2.85180623       6.15280344
Al       0.94857033       1.17500133      -0.01773971
4
Lattice="2.7123770713806152 0.0 0.4158365726470947 1.3276868828835118 2.3647255982133015 0.4162580966949463 0.0 0.0 9.117148399353027" Properties=species:S:1:pos:R:3 pbc="T T T"
Ru       2.63153731       0.37715658       8.57503690
Rh       2.93516528       2.14232247       6.59901849
Rh       0.94394471       0.97857490       1.43449653
Pt       1.93785778       1.56002070       4.01541218
4
Lattice="4.39475679397583 0.0 2.5177507400512695 1.4666768523975409 4.145072221670181 2.521049737930298 0.0 0.0 5.065732479095459" Properties=species:S:1:pos:R:3 pbc="T T T"
Y        3.14424551       1.35431122       3.48975650
Mg       1.68138618       3.42589255       6.02432218
Tl       1.67892929       0.31801139       6.03089470
Ag       4.61016577       2.38979448       6.01714131
4
Lattice="4.096230983734131 0.0 0.000630715861916542 0.00541872571017773 4.112049824008799 -0.001889881445094943 0.0 0.0 10.289921760559082" Properties=species:S:1:pos:R:3 pbc="T T T"
K        4.06450387       0.85303788       6.37145254
Li       4.06861476       0.85327011       2.71220080
K        2.02218785       2.91431535      10.26168778
Li       2.02235084       2.90840532       3.62725458
12
Lattice="4.910493850708008 0.0 1.196129560470581 2.0258790907315065 7.341527809987098 2.389460325241089 0.0 0.0 10.7113676071167" Properties=species:S:1:pos:R:3 pbc="T T T"
Y        4.58078106       5.67902771       9.72856854
Tb       4.86757948       0.78767580       8.53485874
Y        1.83668160       0.16489132      10.30543856
Tb       5.74038416       6.90180497       4.94931057
Y        2.70633164       6.29684058       6.73828994
Tb       4.14826942       2.63297812      11.50473328
Tb       5.30304753       3.84067584       6.74486169
Tb       2.99004133       1.39711103       5.55310677
Y        3.42828689       4.45920855       3.75530353
Y        1.11566239       2.01720637       2.56887213
Y        2.27020526       3.23499118       8.53547797
Tm       1.54921488       5.06919864      11.50189978
10
Lattice="4.8409342765808105 0.0 1.596967101097107 1.788983478798257 7.450609337220651 2.730031967163086 0.0 0.0 8.137173652648926" Properties=species:S:1:pos:R:3 pbc="T T T"
Al       2.81799936       1.49915303       7.25345533
K        2.96455975       7.05108827       6.81455002
Cl       4.72151187       6.67222808       9.63985802
Cl       1.56536257       4.58730780       2.92314639
Cl       5.85268917       5.84168746       6.15310147
Cl       2.70138047       3.77460675       7.60006866
K        4.45625565       3.39156101      10.41561568
Cl       3.53685161       1.77334021       5.07799726
Cl       2.09711633       1.22292526       1.28911293
Cl       0.39667584       1.49949376       6.45303041
11
Lattice="6.012884616851807 0.0 -1.4029916524887085 -2.7027803524664624 5.234571522743157 -2.021068811416626 0.0 0.0 6.212417125701904" Properties=species:S:1:pos:R:3 pbc="T T T"
F        4.15483378       3.41424861       3.43963015
F        2.81302952       1.27944805      -0.12901938
F        1.10977726       3.05692202       3.90226198
F        3.07242117       2.31364833       0.83989393
F        1.39128535       3.96664433      -1.25012402
F        1.52475633       0.38733408       3.21046565
K        4.57048012       0.54505117       2.68626765
F       -1.03044676       2.44429705      -0.37532547
F       -0.19845057       4.80233539       2.17015982
F        3.29952922       4.35992417       2.35343289
F        0.48744172       1.34804175       2.28899810
10
Lattice="3.667149782180786 0.0 -0.6941987872123718 -0.1268535660154613 3.672696857706643 -0.7037612199783325 0.0 0.0 9.81444263458252" Properties=species:S:1:pos:R:3 pbc="T T T"
Li       1.52053204       3.64993549       7.50467098
As       2.34604137       0.70060683       1.98563236
Co       2.58392550       2.84719110       3.17434134
Ni       0.44397699       2.53002321       1.94911765
Ni       0.18678978       0.36845703       0.68364974
Co       1.96837455       2.21404225       0.02313052
As       1.00916042       3.11792581       4.87261378
Co       0.81449946       1.01298820       3.88375520
Li       3.02653690       1.40610433       5.49101668
As       3.53381476       1.93555375       8.10364414
4
Lattice="4.75263786315918 0.0 -0.02878003753721714 -0.026859229697615904 4.761622970046033 -0.025105968117713928 0.0 0.0 4.759762763977051" Properties=species:S:1:pos:R:3 pbc="T T T"
Sn       3.00724823       3.05522680       0.03729455
Ca       0.63104530       3.05122075       2.43064481
Sn       3.02174574       0.67141333       2.42978085
Sn       0.64546547       0.66917886       0.06488972
4
Lattice="3.7665576934814453 0.0 -1.3884233236312866 -0.0006982654004892012 4.513658469548554 -0.0002493237261660397 0.0 0.0 5.803561687469482" Properties=species:S:1:pos:R:3 pbc="T T T"
Pr       2.21336533       4.07934933      -0.35219836
Cu       0.09081955       1.82386998       5.49376124
Pt       3.29031997       4.08261192       2.56859373
Pr       1.17214196       1.82338357       2.62447114
12
Lattice="4.980070114135742 0.0 0.0008932565688155591 0.001514485481923504 7.3555863728648605 -0.007558806799352169 0.0 0.0 9.053245544433594" Properties=species:S:1:pos:R:3 pbc="T T T"
Nd       0.55592949       5.09775821       7.35774100
Nd       3.04519586       3.89738291       0.50211306
Nd       3.04534431       4.88799889       4.19491189
Nd       0.55520230       1.38298786       8.70991613
Er       0.55338173       2.37882068       5.05766950
Au       3.04661155       6.83879129       0.36597622
Nd       3.04617537       1.21277938       2.86559774
Au       3.04531737       3.10211778       6.61609080
Au       0.55570420       6.86904188       4.88430314
Er       0.55541211       6.07199279       1.99502246
Er       3.04525149       0.22748259       6.50881554
Au       0.55574193       3.17653092       2.18958060
20
Lattice="6.610988140106201 0.0 -1.5825960636138916 -2.0118274541796377 6.725525178765561 -2.8573451042175293 0.0 0.0 7.625134468078613" Properties=species:S:1:pos:R:3 pbc="T T T"
Na       2.22452544       0.70296903       4.48533748
Na       4.61118605       2.14137812       5.36926881
Pt      -0.22344984       4.78954212      -1.77076405
Zn      -0.02038886       2.56513447       4.36802594
Zn       2.02069251       0.75691225       1.26919779
Zn       2.18342940       6.64390071      -2.85771750
Zn       4.16877492       3.99542925       3.20715689
Na       3.58560927       3.56137449       0.26389580
Pt       1.85839225       2.94330219       2.62397163
Pt       2.21153445       5.60156156       2.42468566
Zn       4.63677324       6.52139727       3.25683298
Zn       0.38560496       4.06423902       0.79074610
Pt      -0.46849458       4.92722019       3.06524588
Pt       6.04692131       0.16580623       3.74465983
Pt       1.86407685       5.76596620      -0.37692205
Pt      -0.43046905       1.71136355       1.77309119
Pt       0.93823431       2.15275328      -0.81878767
Na       4.58413210       5.70959190      -1.48575422
Pt       2.23073318       3.97412528       5.09783626
Pt       4.28580480       1.62178187       2.18306330
18
Lattice="6.858357906341553 0.0 -3.918370008468628 -3.133739708533824 6.37290920021936 -2.870081663131714 0.0 0.0 8.06009578704834" Properties=species:S:1:pos:R:3 pbc="T T T"
Cs      -1.26188642       4.72585455       4.09678283
Pb      -1.11111262       2.42568084       0.00513296
F        1.81647018       3.92788330       3.71531564
Pb       6.22559180       0.25445045      -0.97957275
F        4.60478942       4.02110579      -2.96260306
F        2.21393156       5.34052564      -1.83346612
Pb       0.96683701       5.85611459       0.06245024
Pb       2.18205238       3.03671652      -1.98956387
F        2.44577754       0.37560474       1.25816287
F        1.49882233       1.05125647       3.96034735
Pb       2.17201234       2.33761602       2.22193665
O        4.12513134       1.90296941       2.82185021
O        0.13097798       2.32795327       1.76912436
O        0.13267896       3.65632914      -1.19794041
F        2.68710875       3.68673995       0.54409491
F        6.40274715       0.43434661       3.48354529
F        4.52733105       1.00408589      -2.59546836
F        5.34806052       1.80951426       0.18280953
8
Lattice="5.051479339599609 0.0 -0.0005084634758532047 -0.009399407075251456 7.507612543327604 -3.208942413330078 0.0 0.0 7.481391429901123" Properties=species:S:1:pos:R:3 pbc="T T T"
Te       1.56130862       1.28753316       4.01862207
Tl       1.55525676       6.26144232       2.90279872
Tl       1.55846649       2.55887640       1.00529220
Te       4.08347073       4.60462570       1.58349885
Tl       4.08154141       7.13141561      -0.50442882
Hg       4.08789907       0.82924489       6.97557471
Hg       1.55792757       5.05358473      -1.37045050
Tl       4.08580711       3.31686746       4.58978783
12
Lattice="5.3651885986328125 0.0 -0.0008093036594800651 0.007970067359991544 6.8721252954339045 0.0010646878508850932 0.0 0.0 9.629741668701172" Properties=species:S:1:pos:R:3 pbc="T T T"
Pr       5.01365318       3.59725424       9.04113736
Pr       5.01054440       0.16148428       5.66900871
Ho       2.32898933       2.18918119       6.96510500
Pr       2.33236718       0.99804937       0.85979766
Ho       5.01431237       2.40395231       2.93290927
Ho       2.33534042       5.62655521       7.75450131
Pr       2.33487858       4.43132667       4.23150573
Cd       5.00779148       0.32788552       8.82968645
Cd       5.01277954       3.76299416       5.88309229
Cd       2.33468874       4.26943013       1.06957219
Ho       5.02043698       5.84375655       2.14927777
Cd       2.33036557       0.83422444       4.01579337
8
Lattice="3.937749147415161 0.0 0.004314704332500696 0.0026965798775188884 3.937503845002048 -0.002252291887998581 0.0 0.0 11.528864860534668" Properties=species:S:1:pos:R:3 pbc="T T T"
Er       0.01317762       2.67178879       1.62310170
Bi       0.01431212       2.67268814       8.40472092
K        1.98110840       0.70550538       5.15602442
Er       1.98093733       0.70315533      10.92353998
O        1.98214270       2.67296696       0.74131001
O        1.98491516       2.67342508       9.49123259
O        0.01463510       0.70410185       9.49586121
O        0.01165921       0.70557608       0.74633363
15
Lattice="7.161082744598389 0.0 -0.013112661428749561 -3.571604950270171 6.207735419209347 0.019134225323796272 0.0 0.0 10.674456596374512" Properties=species:S:1:pos:R:3 pbc="T T T"
Tl       3.37339251       4.55411434       0.21554631
Tl      -0.20974330       2.48828193       2.76026907
Rb      -0.20847891       2.48962340       8.09422969
Mn       3.36342984       0.42187840       1.14269591
Mn       3.37446381       4.56089736       4.36416852
Cl       1.58042150       5.59441928       2.76082483
Cl      -0.21088978       4.59478583      10.61721173
Tl       3.36812749       0.42400698       5.28134776
Cl      -2.02947276       3.54280523       5.58609938
Cl       3.36808427       2.48813947       2.75061539
Cl       1.60775068       1.43450965      10.60540797
Cl      -1.99531663       5.59485219       2.76803271
Cl       5.12689936       1.43843250      10.60116707
Cl      -0.21376385       0.38781506       5.57776144
Cl       1.61181470       3.54351602       5.58321384
7
Lattice="3.105208158493042 0.0 -0.44626542925834656 -0.06611790542044554 3.1051389823137394 -0.44936051964759827 0.0 0.0 10.98025894165039" Properties=species:S:1:pos:R:3 pbc="T T T"
Ta       2.67363036       0.04468495       6.61906231
Ru       1.30867192       1.82242290       8.14649368
Ru       1.72542429       2.24968652       0.06543908
Ga       0.84593730       1.34838873       4.94222088
Ru       2.16322745       2.69575656       3.09971885
Ga      -0.00369072       0.48090066      10.02653969
Ta       0.42313898       0.91772944       2.01872382
6
Lattice="4.5036725997924805 0.0 -1.9328364133834839 0.0010200328881207709 4.9514931581786366 0.0030538097489625216 0.0 0.0 6.182164192199707" Properties=species:S:1:pos:R:3 pbc="T T T"
Na       2.04020742       3.38899416       4.29557340
Na       1.21865589       0.91332409       2.41253292
Pt       2.71895672       0.91080403      -0.30494340
Pb       4.45121271       0.91588539       3.69445273
Pt       0.53909393       3.39184248       0.83092344
Pb       3.31139560       3.38672754       1.08101845
12
Lattice="6.208105087280273 0.0 -1.246536374092102 -2.395723144647733 7.2388623652085515 -3.5342037677764893 0.0 0.0 8.387825965881348" Properties=species:S:1:pos:R:3 pbc="T T T"
Pr       5.02453737       0.86477883       4.64721402
Ga       3.16847439       2.98072835       3.21280838
Pr       1.04958928       3.50619387       0.91561552
Ga       0.07255221       2.95957252       3.87112143
Pr       1.65869549       0.19444212       3.27728348
Pr       4.35561915       1.41606184       0.64292701
Pr       1.58828660       5.74240551       3.80863534
Pr       4.42512345       5.08188562       1.19793336
Pr      -1.11820627       4.52531458      -1.94772902
Pb       2.26320368       5.72634879      -1.30822586
Pb       0.98187627       0.21599557       0.00589470
Pr       2.19710175       2.43817684       6.16458349
10
Lattice="4.045392990112305 0.0 0.01981412246823311 0.0061221166777214505 4.044280663653677 0.004859559237957001 0.0 0.0 9.878849029541016" Properties=species:S:1:pos:R:3 pbc="T T T"
Tm       3.62130773       1.92539692       6.54793119
P        1.60288461       3.94870024       7.72258041
Tm       1.60092105       3.94967435       1.78323275
P        3.62370573       3.95011091       4.17178486
Ni       1.59909601       1.92634886       4.16205873
Ir       1.59811063       1.92529773       9.09789062
Ir       3.62303709       3.94851727       9.10818087
Ir       1.60283917       3.94886416       5.46631081
P        3.61939793       1.92549744       0.59939818
Ir       3.62168982       1.92645432       2.86217449
8
Lattice="4.773044109344482 0.0 1.2036457061767578 1.8162906967496613 7.120823508140761 2.523770570755005 0.0 0.0 9.259529113769531" Properties=species:S:1:pos:R:3 pbc="T T T"
Hg       3.50079109       2.62986915       8.04037937
Ag       2.09244465       0.51473608       3.49806064
I        4.81704844       0.48459632       2.69012808
I        3.33170666       5.43801933       7.98059571
Ag       2.93066675       5.07279586       4.93784003
Hg       3.26375022       0.04698596       8.79343834
I        4.77696503       4.49505099       2.81388718
I        1.59966337       2.58005671       5.33595302
14
Lattice="3.281811237335205 0.0 -0.02467031031847 -0.08649646981491593 6.282642540952054 -0.7889431715011597 0.0 0.0 11.751660346984863" Properties=species:S:1:pos:R:3 pbc="T T T"
C        1.32200908       0.06295767       3.38186886
Hf       2.93672006       2.13740185       7.69114009
Hf       1.32198016       0.35589266       5.62861287
Hg       1.25480811       5.17971313       7.54185035
Hf       2.94094674       1.63254988       3.26239122
Hf       1.23870794       6.05953914       0.35883644
Hf       2.90814124       4.26818672      10.02279416
Hf       1.28063978       3.03610475       0.77274479
C        2.90122825       4.53624394       0.40993116
Hg       1.30453831       1.24826958      10.20703524
Hf       1.28005748       3.38101277       5.20889527
C        1.27883076       3.20277444       2.98783694
Hf       2.89925893       4.77966521       2.70377616
C        2.94120618       1.89030960       5.54949867
11
Lattice="5.009139537811279 0.0 1.9744681119918823 2.501314909412358 4.71447817583519 0.9939154982566833 0.0 0.0 5.293678283691406" Properties=species:S:1:pos:R:3 pbc="T T T"
O        4.45236945       0.90809068       2.41345374
Li       3.10628766       0.96288197       5.66086118
In       5.61501444       3.95764177       4.00483679
O        1.77862113       0.91145430       3.61515120
Li       3.11199646       2.42395412       3.01910058
O        4.30684217       4.14437452       2.30390952
O        6.92949697       4.14084257       5.70257903
Li       5.61782472       2.19926072       6.64741733
Ir       0.61102356       0.82061374       2.02735401
O        4.52637390       2.20404848       4.81386367
O        1.70280822       2.20943562       1.22009283
12
Lattice="4.527212619781494 0.0 0.9569898843765259 2.0011234186916904 6.405263966656107 1.6298444271087646 0.0 0.0 10.945327758789062" Properties=species:S:1:pos:R:3 pbc="T T T"
Tb       4.50051546       1.86855107       7.59422703
Sn       3.86838799       2.94257348      10.54098623
Sn       3.30776840       4.58980409       2.14717461
Tb       5.06659391       4.53664418       4.95278855
Hg       1.80434741       0.91905526       9.14501511
Sn       0.55699044       0.19714664       3.94664593
Sn       2.28941961       3.86389319       6.86094568
Tb       1.11271419       2.08199705       1.37978370
Tb       4.37141046       5.71472302       8.17182216
Tb       6.08364791       5.09010080      11.21619024
Hg       2.83997698       2.16055091       4.32642661
Hg       3.51512011       0.30363114       1.20817068
16
Lattice="8.085253715515137 0.0 3.928884267807007 3.082736854346705 7.475697903256762 3.9259438514709473 0.0 0.0 10.28098201751709" Properties=species:S:1:pos:R:3 pbc="T T T"
Cs       4.55225601       6.67066156      10.76903239
Cs       3.00958321       2.92660715       8.81201976
Te       5.59045841       4.65784300      13.78401255
Te       6.14498826       5.02956938       7.74391929
Mn       8.59164324       6.66785080       7.59155876
Te       9.57292541       4.75598428      15.86106115
Te       9.99174943       5.02870583       9.60698456
Dy       7.04937939       2.92987441       5.63010114
Dy       3.00845090       2.92951059       3.66685293
Te       4.52874497       1.10480777       5.67920303
Cs       8.59255721       6.67006135      12.73058134
Cs       7.05087767       2.92985570      10.77043761
Te       4.11083547       0.82785003      11.93348830
Dy       4.55018331       6.66603548       5.62761114
Te       8.51495972       1.20004405       7.75937796
Te       7.95984362       0.82852688      13.79867152
10
Lattice="4.4041032791137695 0.0 0.0005568431224673986 0.0053523719169175565 4.413118931361214 -0.0013848491944372654 0.0 0.0 10.862333297729492" Properties=species:S:1:pos:R:3 pbc="T T T"
Li       2.53739258       1.11378065       4.59503669
Li       2.53763472       3.32025436       5.99132066
Ga       0.33320532       1.11474680       5.99451839
La       0.33555541       3.31992714       3.03525479
Pd       2.53906768       3.31912933       0.56004456
Ga       0.33435332       1.11241638       0.56549109
Ga       2.53459090       1.11294115       2.00246144
Ga       0.33741506       3.32103639       9.98350660
Li       0.33690615       3.31942394       7.40091938
La       2.53638750       1.11295877       8.95130956
6
Lattice="3.721026659011841 0.0 -0.0033527484629303217 -1.856465913802225 6.558138954478925 -1.72208571434021 0.0 0.0 8.782379150390625" Properties=species:S:1:pos:R:3 pbc="T T T"
Tb       1.39005371       0.53483872       2.55090235
Pr      -0.46858509       2.72236191       4.86365415
Pr       1.39058053       4.93232465       7.27660998
Pr      -0.47308077       1.96183183      -0.25032617
Pr      -0.46648903       6.35909377       4.40338346
Pr       1.39276250       4.18375499       2.03711174
15
Lattice="6.2217302322387695 0.0 -0.5385259985923767 -1.884942944938302 6.2049970182854945 -0.1204383596777916 0.0 0.0 6.2683939933776855" Properties=species:S:1:pos:R:3 pbc="T T T"
Li       0.53696051       3.45780241       1.32938446
Li       3.17638179       0.86642226       4.57453594
Li       3.93729747       5.95486308       3.69938304
Au       2.94404199       2.17181993       0.67766103
Li       4.49671290       3.54831868       5.23827106
Au       2.17020481       4.78527337       5.64076153
Li       2.47086857       3.49643289       3.12074378
Li       5.01434768       2.43103028       2.53787202
Au       4.21771616       4.75368366       1.33590964
Li       1.67556260       6.03861115       1.87793466
Li      -0.25891878       6.00593742       0.08430013
Li       0.92166357       2.42766153       5.01978441
Au       1.15536053       1.12616648       2.64654065
Li       5.30440000       0.86166039       0.24712795
Au       0.04132967       4.71470626       3.83792202
12
Lattice="4.243130683898926 0.0 -0.9785562753677368 -0.4387520027846506 8.418814506743454 -1.9000880718231201 0.0 0.0 9.687155723571777" Properties=species:S:1:pos:R:3 pbc="T T T"
Sm       0.74978303       0.72554649       0.43156983
Sm       1.86603203       6.39533230       5.27414827
Sm       3.44003966       3.60012165       2.40792161
Sm       2.04782763       2.27702215       6.06150747
Se       1.39927699       1.53004213       3.24941641
Sm       0.49578323       5.15474360      -0.67040376
Se      -0.15574793       4.34836383       6.20158481
Sb       0.06176306       0.13686654       7.13659531
Sm       3.18341872       7.90142964       1.29586347
Se       2.52522360       7.14902905      -1.55887112
Bi       2.74324967       2.94061937      -0.60923531
Sb       1.18440448       5.74119076       2.31123466
5
Lattice="3.8737633228302 0.0 0.0007502370863221586 0.002066834283599578 4.075585794897373 -0.0011147130280733109 0.0 0.0 4.079268932342529" Properties=species:S:1:pos:R:3 pbc="T T T"
Er       0.52580496       0.07972494       2.32977918
Rh       2.46178285       0.08006642       0.28973540
H        2.46303369       2.11634208       0.28990194
Ni       0.52833592       2.11766116       0.28752010
Rh       2.46357314       2.11604717       2.32579553
11
Lattice="4.220470905303955 0.0 -0.7314419150352478 -0.13117561543448697 4.218930426825925 -0.7347851991653442 0.0 0.0 12.613779067993164" Properties=species:S:1:pos:R:3 pbc="T T T"
Zn       1.62342120       3.73012798       1.39622926
Eu      -0.09793681       4.13130872       4.02813972
Eu       1.26410796       1.17864452      11.89894718
Eu       2.49240170       2.44516825       6.40895092
Zn       0.77079590       2.84631631       9.05204663
Zn       3.79947035       1.61831267       1.39690127
Zn       2.94790294       0.73781585       9.05376840
Si       3.50761223       3.49395239      -0.28864106
Si       3.10828577       3.08222508      10.00829843
Si       0.58467228       0.47635457       7.93695365
Si       1.94314858       1.88005587       3.23524639
12
Lattice="7.731990337371826 0.0 0.019535666331648827 0.023414358494369826 7.740005363703593 0.02940668910741806 0.0 0.0 7.759566783905029" Properties=species:S:1:pos:R:3 pbc="T T T"
Ba       1.07160414       5.26914392       7.51453836
Ba       6.05667321       0.26043437       2.48388146
Ba       1.05878803       1.39876963       6.35619629
Ba       2.20048216       1.40362581       2.47897783
Ir       7.42879833       2.76103986       1.12587516
Ba       4.91616725       0.25213549       6.35415668
Ba       6.06332840       4.13210854       3.63376568
Ba       2.20688671       5.26991297       3.64203952
Ba       4.93251719       4.13037621       7.51439307
Ir       3.57418013       6.63492795       1.13430701
Ir       7.44014980       6.63411507       5.02154961
Ir       3.56632503       2.76057114       4.99874352
4
Lattice="2.9487693309783936 0.0 0.00020972895435988903 0.0005361701735638232 2.9476582516359096 -0.0011319505283609033 0.0 0.0 6.560970783233643" Properties=species:S:1:pos:R:3 pbc="T T T"
Pd       1.02368220       0.06555189       2.67466625
Cu       2.49836589       1.53939817       1.11573956
Cu       1.02402734       0.06525704       6.34233773
Ag       2.49807920       1.53929135       4.60987798
20
Lattice="3.211229085922241 0.0 0.0061783939599990845 0.01818993248556645 9.620309799243937 0.021859388798475266 0.0 0.0 9.61961555480957" Properties=species:S:1:pos:R:3 pbc="T T T"
B        3.08848540       2.49176377       3.75487194
B        3.09244080       4.90247818       8.64573089
B        3.09872140       7.22684802       1.35954892
Mg       3.08825334       2.94816954       6.67135998
Mg       3.09835357       7.77422152       8.10733235
Sn       3.08673600       1.28238965       0.17420313
Mg       3.10235061       9.19718791       3.31425758
Pd       1.48453272       3.92963408       4.30471606
Pd       1.49475412       8.73879009       0.89266339
Pd       1.47832819       0.56319689       7.64230627
Pd       1.48982679       6.08726397       0.17082533
B        3.08350328       0.09207732       6.14608242
Pd       3.09205277       4.40348429       1.85091970
Pd       1.48283310       1.95770325       2.31212254
Pd       1.49061079       6.77907329       2.84163868
Sn       3.09467150       6.07020430       4.97661619
Pd       1.49365542       8.21545989       5.69884206
Pd       1.48068585       1.26438628       4.97491657
Pd       1.48499734       3.41426489       9.08566506
Pd       1.48864568       5.36931151       7.13371238
18
Lattice="4.747155666351318 0.0 -1.6447041034698486 -0.7790069037660884 7.249004962599645 -2.2456209659576416 0.0 0.0 7.706145286560059" Properties=species:S:1:pos:R:3 pbc="T T T"
Ce       2.03399829       4.09586148      -1.94229207
N        0.66883379       6.27835595       1.11757937
Ce       4.38871395       1.64243575       4.93664853
N        1.15642764       4.03232754       3.24790688
N       -0.26136553       4.10759619      -0.87665001
Ce       2.81811888       1.67730459       0.36435427
Ce       3.61070659       4.04281398       2.64693368
Ce      -0.33319189       6.49263891      -1.09509313
Ce       1.22598909       1.61045987       3.44411779
N        0.43424293       1.92388284       1.16946815
Ce       1.25053272       6.44125274       3.49545909
N        3.59579126       1.36481242       2.64470167
N        3.53123506       6.43036792       2.44207919
N        2.09974729       6.50647307      -1.69007694
Ta       0.29552814       4.09606283       1.24144494
N        3.03754491       4.26543425       0.28639145
N        2.02041640       1.64614727       5.76201563
Ta       2.66362585       6.43626660       0.43205075
14
Lattice="5.338965892791748 0.0 -1.9132511615753174 -1.0038629868456754 6.814131570297527 1.5397309064865112 0.0 0.0 8.772794723510742" Properties=species:S:1:pos:R:3 pbc="T T T"
Ca       3.86094403       2.84703988       5.72803893
Ca       4.27940722       3.98860464       2.26043169
Ca       3.85381591       6.45072700       5.69848266
Ca       1.95505344       1.91286969      -0.26222933
Ca       0.96319351       5.12391565       1.30815448
Ca       1.53948489       0.77627396       3.20392256
Pd       1.90350826       4.66092296       4.19245983
Pd       3.91703040       0.09795456       1.28058250
Ga       4.65836445       0.10969469      -1.16351809
Pd       0.92828990       2.33264314       5.72590171
Ga       1.16075552       4.64854583       6.63171705
Pd       4.89533153       2.42406066      -0.25860798
Pd       2.53666739       0.10811357       6.10141117
Pd       3.28209309       4.64946739       8.13839959
11
Lattice="4.401067733764648 0.0 0.0016671395860612392 0.011847766490648828 4.440014767495197 0.0006534826243296266 0.0 0.0 11.43594741821289" Properties=species:S:1:pos:R:3 pbc="T T T"
Ce       3.08289444       2.04998760       3.10350204
Al       3.08987058       4.26933403       0.96231455
Al       0.88238718       2.05145321       5.24385954
Al       3.08876644       4.26952405       8.12097299
Ga       3.09048054       4.27122334       5.22100710
Ce       3.08191796       2.05142158      10.26472613
Ga       0.88387726       2.04693597       8.14544171
Ga       0.88909133       4.26830906      10.20102168
Ga       0.88645018       2.05162245       0.96737821
Ga       0.88893444       4.27081128       3.15698759
Ga       3.08290772       2.05112835       6.68612124
8
Lattice="3.789682626724243 0.0 0.0006720612291246653 -5.380813915748714e-05 3.784935235594694 -0.0002821650996338576 0.0 0.0 9.78622055053711" Properties=species:S:1:pos:R:3 pbc="T T T"
Ce       0.15589061       0.86945309       2.66494877
Cu       0.15718147       2.76172116       5.05523958
Si       2.05499128       2.76125237       1.34400280
Co       2.05252151       0.86869287       0.15881441
Co       0.15701562       2.76256829       0.16038984
Ce       2.05351309       2.76241037       7.44199230
Si       0.15632522       0.86863236       8.74942330
Cu       2.05403132       0.86753493       5.05618673
9
Lattice="4.103207111358643 0.0 -0.006288083735853434 -0.009793214821867912 6.714856635756833 -3.8893587589263916 0.0 0.0 7.764555931091309" Properties=species:S:1:pos:R:3 pbc="T T T"
Pr       1.29834257       4.86036535       3.61263124
Pb       3.34914312       4.86125908      -1.56364691
Pr       1.30161649       2.11348342      -1.14626887
Pr       1.30436139       0.89102133       2.73657816
Rh       3.35611189       0.38168277       0.43942845
Pb       3.35257121       3.12785338       1.43464614
Pb       3.34765293       6.58734244       1.43153917
Rh       1.29853763       4.85750045       0.44160136
Rh       3.35274866       2.62350558       4.31893304
7
Lattice="6.593128681182861 0.0 -3.8667492866516113 -2.374393288867822 6.149246425838787 -3.8369030952453613 0.0 0.0 7.533586502075195" Properties=species:S:1:pos:R:3 pbc="T T T"
Be       3.46738222       3.64928025      -3.31070689
In       1.22303670       5.17815741       0.48421049
K        1.35783775       0.59087039       0.54542727
I       -2.12639665       5.80345445       0.08139584
I        3.54774909       3.10897161      -0.93520000
I        4.69629721       1.94946598       2.97715271
I        1.11324137       3.77678796       3.57718422
9
Lattice="4.248537063598633 0.0 -0.0032638476695865393 -0.02442096237991485 7.171615506106884 -4.166759014129639 0.0 0.0 8.287432670593262" Properties=species:S:1:pos:R:3 pbc="T T T"
Y        3.17233430       1.44356409       4.22000362
Al       3.15739859       5.71634602      -1.61080686
Y        3.15612070       5.71488239       3.31557955
Y        1.05284616       0.30089708       1.53835422
Y        1.03696765       3.95917921       5.66648234
Y        3.16765981       2.81132343       0.07572843
Y        1.03314447       5.71538765       0.42157014
Te       1.04948317       0.93640934       6.69226837
Te       1.04233911       3.32277054       2.54143681
8
Lattice="6.154199600219727 0.0 1.852016568183899 -0.18991483304183363 7.355965851242606 3.0002119541168213 0.0 0.0 8.797249794006348" Properties=species:S:1:pos:R:3 pbc="T T T"
Au       0.51586684       5.09371343       5.27263124
I        5.31640728       4.14675716       4.90150082
I        3.88635489       0.00902899       7.33861484
Sm       3.69163422       1.41945612       4.69954760
I        3.49103442       2.81704369      10.86645632
I        1.12067210       2.62289442       6.13170267
I        0.10364709       0.20773203       1.42977082
I        1.87129085       6.04046451       7.49130334
12
Lattice="4.4373884201049805 0.0 1.32830810546875 0.024981442345150765 4.447676120270005 1.2604337930679321 0.0 0.0 8.161298751831055" Properties=species:S:1:pos:R:3 pbc="T T T"
Ni       2.14723253       1.38992477       2.95629809
Ni       3.95528004       1.37364153       4.92122674
Sn       1.42316411       0.74374111       5.31487696
Ni       3.29053932       0.40353698       7.23585989
Sn       0.24304410       1.98371873       1.22163633
Ni       4.26996427       3.88793863       4.43641746
Ni       1.77762610       3.30271370       4.66952340
Ni       0.91771078       2.66901775       7.01964495
Ni       0.74013430       0.05806714       7.67505921
As       3.61039318       3.06007815       6.62070603
Ni       2.81339972       2.38300089       8.80701615
As       2.50150350       4.13406875       2.51012285
18
Lattice="7.088949203491211 0.0 -0.9374299645423889 -1.7452336698890403 7.739227219986596 -0.46387210488319397 0.0 0.0 6.9221062660217285" Properties=species:S:1:pos:R:3 pbc="T T T"
O       -0.01461902       6.25848168      -0.09360436
Hg       0.84077430       2.34316538       2.15887444
Cd       2.40869112       5.95285556       4.15585196
O        1.01729187       1.05040124       5.84651512
Hg       5.27492330       1.89227528       2.83406570
Te       5.41326573       7.41023196      -1.34611203
Cd       1.88974862       7.50199484       0.91469310
Te       3.41387432       4.20791732       0.84584817
O        4.89278159       5.36874448       0.37980371
O        2.22547498       4.55929180       6.17823560
O        3.94909913       0.24287521       6.00669306
O        0.74515589       7.50301569       3.09982597
Te       2.75690556       1.23619497       4.85340398
Cd      -1.10302640       6.08415041       3.21184507
Te       0.19567437       4.37022081       6.14753768
O        2.56757741       5.55101508       1.92105390
O        4.67259893       6.39228597       4.11580790
O        0.36942600       4.74763071       4.28464756
20
Lattice="7.433981418609619 0.0 3.790497064590454 0.3910757330864664 7.588619768309722 2.8036186695098877 0.0 0.0 8.078084945678711" Properties=species:S:1:pos:R:3 pbc="T T T"
Hg       0.78433354       0.40469304       2.78177124
Sc       3.93410764       0.50275378      10.20881001
Sc       6.96263305       5.42163829       9.05945644
Li       3.93438434       2.84734470       5.24777893
Li       7.25155464       0.26204645       9.43959130
Hg       2.67891923       5.52359914       4.63161178
Hg       4.91667529       5.41708663       6.75992795
Tl       1.62709579       4.70889166       7.60292482
Hg       5.97553832       0.50235416       4.42531285
Li       6.96649660       3.05917899       5.94335296
Hg       5.77184473       5.57802780      11.91859809
Hg       2.75129744       0.16236318       5.06056401
Tl       1.83647477       1.21306655       7.88791967
Hg       0.91378575       2.80176698       5.00294106
Hg       0.70533464       5.74057695       2.34584218
Li       3.64161068       5.68253835       9.87175117
Hg       2.55857421       3.12335666       2.40697377
Hg       4.91373432       3.05229178       8.29140817
Hg       5.99136156       2.87582506      10.98172602
Hg       5.14469463       0.35245340       7.35331914
12
Lattice="4.825094223022461 0.0 1.1852176189422607 1.9868836607869858 7.158985179907625 2.334141492843628 0.0 0.0 10.444406509399414" Properties=species:S:1:pos:R:3 pbc="T T T"
Ho       1.31866855       1.05486600       1.39030804
Er       3.58977869       3.44689476       2.55550405
Er       2.45385986       2.24775885       7.19820840
Ho       4.72059730       4.63686156       8.38900918
Ho       4.29607535       1.65135653      10.11990320
Ho       5.43906433       2.84263866       5.44692050
Ho       2.88003641       5.23396452       5.46340430
Er       3.16810191       0.47436350       4.28273761
Er       2.17596569       7.02919019       8.33288097
Mg       5.86063928       5.82830327       3.73810409
Ho       1.73953562       4.02608257      10.11230279
Er       4.01441235       6.42460445      11.27313176
4
Lattice="4.269745349884033 0.0 -2.0076632499694824 -0.9448987613321554 4.166020534917159 -2.0039212703704834 0.0 0.0 5.5414204597473145" Properties=species:S:1:pos:R:3 pbc="T T T"
Cd       2.80591919       0.84066981       1.57835586
In       1.50510763       1.88266865      -1.19215285
Cd       0.19980370       2.92591497       1.58150806
Hg       3.16620999       3.96720705      -3.19517869
5
Lattice="3.8036627769470215 0.0 -1.4101669788360596 -0.5242036987821919 3.767861621350609 -1.4118387699127197 0.0 0.0 5.829116344451904" Properties=species:S:1:pos:R:3 pbc="T T T"
Be       0.30746749       3.06463435       0.70436562
La       2.92149278       1.69810746       1.91752470
Pt       1.84079226       2.64101713      -0.99669019
Pt       0.20030930       0.75536866       0.41202691
Be       1.73256113       0.33151076       4.53724725
10
Lattice="4.612898826599121 0.0 -0.00011293122224742547 0.0013381977265582853 6.513019424291162 -0.002153276465833187 0.0 0.0 6.512939453125" Properties=species:S:1:pos:R:3 pbc="T T T"
F        1.48675559       1.75471206       4.56514138
Hg       1.48747785       3.38312705       2.93129570
Hg       1.48567276       0.12710725       6.18765928
F        1.48549014       1.75674917       1.30458044
K        3.79313330       0.12641094       2.93274355
K        3.79494863       3.38142515       6.18900590
F        1.48639222       5.00906975       4.55973703
F        3.79312983       0.12692796       6.18915293
F        1.48745885       5.01088384       1.30004315
F        3.79126961       3.38186344       2.93287735
10
Lattice="5.246870994567871 0.0 -0.07650884240865707 0.03315237897718445 5.7148682308922885 0.017585603520274162 0.0 0.0 6.462911605834961" Properties=species:S:1:pos:R:3 pbc="T T T"
Hf       0.41211403       0.91419955       3.59680211
Hf       3.06037584       2.61710702       0.30714908
Zr       0.45870308       3.64424181       5.21169515
N        1.73257542       1.77298447       5.18072856
Zr       0.40628342       3.65731938       1.97801859
Hf       3.11066526       5.60270197       1.94226982
N        4.35441435       1.73666843       1.91128447
Zr       3.04302330       5.59016090       5.17452401
Zr       0.43340959       0.90585524       0.36052491
Zr       3.04960676       2.62649554       3.53389782
16
Lattice="3.4334213733673096 0.0 0.001862555043771863 0.008569562778976343 8.009683793092957 -3.4303669929504395 0.0 0.0 8.651138305664062" Properties=species:S:1:pos:R:3 pbc="T T T"
Zr       0.71026034       2.18645082       2.67773010
Zr       0.71517009       6.68567103       5.69011983
Zr       2.43336045       5.21572750       2.82546142
Zr       0.71593864       8.00280664       2.78838794
H        2.43185496       7.82694820      -1.94955001
Zr       0.71247132       4.07351413       0.20497060
Zr       2.42524691       1.33253222      -0.01673893
Si       2.43215103       4.95907193      -1.75611304
Si       2.43017862       1.39059153       4.60873939
H        0.71464303       4.10850574       3.74035044
Zr       2.43266817       6.96557000       0.07381288
C        0.71608700       6.09939904       1.41563342
C        2.43222874       7.16961594       4.15549809
C        0.71007878       2.03826880       7.52811564
Zr       0.71318070       3.20938698       5.76062898
C        2.42852146       3.15194735       1.51971650
12
Lattice="3.5042498111724854 0.0 -0.8088462948799133 -0.36558657628464963 6.992034926682317 -1.5802878141403198 0.0 0.0 8.018158912658691" Properties=species:S:1:pos:R:3 pbc="T T T"
Sm       2.29269191       0.13021182       4.75828625
Sm       2.09775604       3.66554452       3.91650892
Sm       1.00243236       2.45510808       7.17137246
Sm       3.22121083       4.77562048       0.77818672
N        1.55074079       3.06013490       1.53647616
Sm       3.38424179       1.34598628       1.48370754
O        0.44520898       1.90899434       4.74898515
C        0.25565860       5.36497346       3.92322238
O        2.65750162       4.21727803       6.34381035
O        1.36842304       6.55660892       0.74359109
Sm       0.81012543       5.99021096       6.33347527
C        2.84667011       0.75609307       7.16530950
4
Lattice="3.546980857849121 0.0 0.005312746856361628 0.005657727552401724 5.066287696302568 -0.003324961056932807 0.0 0.0 5.065382957458496" Properties=species:S:1:pos:R:3 pbc="T T T"
Cu       0.39116323       2.75192844       4.50909573
La       2.16603800       2.75201148       1.98009596
Cu       0.38859681       0.21821781       1.97546057
Tb       2.16121148       0.21888171       4.51175485
4
Lattice="3.6588847637176514 0.0 -1.071234107017517 -0.6424235887774195 4.974519846778866 -2.195441722869873 0.0 0.0 6.810680389404297" Properties=species:S:1:pos:R:3 pbc="T T T"
Sr       0.70490534       2.04237866       1.06738942
Pb      -0.23560553       3.51112817       4.65558906
Sr       1.63157348       0.56707403       4.25357870
Cu       2.12304933       4.38521866      -0.87571616
4
Lattice="4.5419602394104 0.0 2.6119492053985596 1.517125921805416 4.28292383931225 2.608041524887085 0.0 0.0 5.236471176147461" Properties=species:S:1:pos:R:3 pbc="T T T"
Dy       3.77865301       2.60695131       7.81777730
Ag       2.26442535       1.53683597       5.20394065
In       5.29351831       3.67779715       5.19542562
Y        0.74988009       0.46646333       2.59084163
8
Lattice="4.550513744354248 0.0 0.007624133490025997 0.019942588600663336 7.41733063551462 -2.601745843887329 0.0 0.0 7.847777366638184" Properties=species:S:1:pos:R:3 pbc="T T T"
Tb       1.85627388       0.01446079       5.39463494
Tm       1.86666729       3.72224774       0.17129461
La       4.14223345       3.71935371       4.09821936
Tb       4.13091983       0.01129319       1.47507095
Bi       4.13657475       1.86083650       6.76796605
Bi       1.87170968       5.62133935       5.46300424
Bi       4.14640692       5.58463869       1.42914069
Bi       1.86163589       1.81911947       2.72737407
11
Lattice="6.752923488616943 0.0 0.5301591753959656 0.29035079274468195 6.921655792527178 -3.659170627593994 0.0 0.0 8.347139358520508" Properties=species:S:1:pos:R:3 pbc="T T T"
Br       3.64122408       4.16161414       5.73539124
Hg       1.94176215       4.33778548       1.62807337
Br       3.49472099       0.80050485       7.51085447
Hg       6.38420112       0.22468693       2.59337441
Br       6.79960966       3.28138287       0.04553822
Hg       1.96138559       1.97705371       5.55420644
Br       0.43081882       3.15891833       3.59813671
Br       0.56986682       6.71337180       1.70879491
Br       3.87845971       0.67844148       3.24478413
Hg       4.28875169       3.72877797       0.67906256
Hg       2.26750097       6.54541829      -2.52943931
4
Lattice="2.799074172973633 0.0 0.017225099727511406 0.032723619678340275 4.666599935691742 -1.5768953561782837 0.0 0.0 4.8915557861328125" Properties=species:S:1:pos:R:3 pbc="T T T"
Ag       1.21921944       1.26318508       4.08026336
Rh       2.61997068       1.26442132       1.64358161
Pt       1.23336495       3.59643415       0.84810311
Pt       2.63521277       3.59690283       3.29876801
8
Lattice="4.909278392791748 0.0 -0.01954822428524494 -0.050872617652775794 8.125216490517055 -1.2466857433319092 0.0 0.0 14.048731803894043" Properties=species:S:1:pos:R:3 pbc="T T T"
Cs       2.54742586       1.78489123       0.34357233
Cs       0.07507282       5.22693721       3.00454936
Cs       2.55959442       1.01831027       4.93785268
Cs       0.06430956       5.99599404      12.49017234
Rb       2.52003299       5.51223824       7.79740962
Pt       0.05711131       7.92388496       1.12503818
Pt       2.51614357       7.23949018       1.01543225
Rb       0.09401264       1.55804614       9.62317227
15
Lattice="3.9638917446136475 0.0 -0.0018506115302443504 -1.972315621736016 7.434864346972726 -0.3506328761577606 0.0 0.0 13.443132400512695" Properties=species:S:1:pos:R:3 pbc="T T T"
Sn       2.37767854       3.17867446       6.22455345
Se       2.37134021       2.78266014       1.23016137
Se       2.37928114       5.66732510       7.80875224
Sn       0.39364020       1.95771479       2.98104281
Sn       0.39457092       5.15227870      -0.14970625
Ag      -1.58174043       6.17769669       3.90106139
Ag       2.36962660       0.19352819       8.55967867
Sn       0.39441873       4.39946595       9.46733153
Se       2.37409570       0.68236204       4.62528896
Se       0.39244453       7.02704134      11.08998374
Se      -1.58427687       6.76431664       1.01376204
Se       0.39473465       4.35917541       4.38136526
Se       2.37717578       3.57459705      11.21554976
Sn       0.38819668       1.20483490      12.59632891
Se       0.39346877       1.99810437       8.05665729
16
Lattice="6.4544358253479 0.0 0.057127442210912704 -0.07601767538499694 6.429744545336475 -0.015085794031620026 0.0 0.0 8.02431869506836" Properties=species:S:1:pos:R:3 pbc="T T T"
Zr       1.14296354       5.03072534       3.75356493
Al       5.90297087       3.58180909       1.84995829
Zr       1.25858124       1.98744018       3.52614352
Zr       6.15477047       0.40286069       5.84653187
Zr       1.25144744       1.94234383       0.08464471
Au       4.43126107       5.06882502       4.23896571
Zr       5.76224324       0.16409081       1.99631390
Al       3.17889553       3.94143593       1.93639411
Zr       4.37991444       2.01897722       7.90323401
Zr       4.41597866       5.10048738       7.55259064
Zr       4.43255584       2.18296483       3.92512393
Au       2.89560636       0.19375048       1.96540857
Zr       1.21186111       5.10726464       7.97460486
Al       6.24205512       3.43807164       5.92491634
Zr       2.75791079       0.43000399       5.75818973
Al       2.61539850       3.50248361       5.86190610
6
Lattice="5.576451301574707 0.0 -0.0051415362395346165 -2.786890587436517 4.82725284303304 0.0047161574475467205 0.0 0.0 8.254598617553711" Properties=species:S:1:pos:R:3 pbc="T T T"
Tl       1.90169267       1.85325452       7.63843538
K        4.68933660       0.24228298       0.83361578
Ba       4.68985512       0.24324155       4.95892048
Tl      -0.88791445       3.46305572       2.29010716
Bi      -0.88866883       3.46349911       6.98180317
Bi       1.89889314       1.85309541       2.94345810
10
Lattice="5.676830291748047 0.0 -3.235506296157837 -1.8436022540540762 5.377584920975925 -3.245760202407837 0.0 0.0 6.645871162414551" Properties=species:S:1:pos:R:3 pbc="T T T"
As       3.19083858       3.14130318      -1.61500814
F        2.94880486       1.60277597      -0.23068863
Rb      -0.60124768       1.78815394       4.95009721
Rb       1.30877897       4.49130674       1.70521463
F        1.30820652       3.88210476      -1.12380682
Rb       1.27497739       0.45185347       1.62438660
F        4.03235008       4.32242480      -0.14332223
F        3.43564355       4.68124264      -3.00234346
F        2.35132359       1.96472217       3.55299010
F       -0.60296440       2.40145741       1.12826828
20
Lattice="5.234448432922363 0.0 1.8513140678405762 2.566890039795111 7.850265903223397 1.0776939392089844 0.0 0.0 8.329156875610352" Properties=species:S:1:pos:R:3 pbc="T T T"
Cu       5.24961404       7.02640615       4.04597429
Zn       2.57745474       3.40663230       3.25870654
Tm       4.88146318       4.21290183       5.07190281
Zn       5.18908422       5.20143209       8.33916997
Tm       2.91863723       6.22921365       2.30292154
Zn       5.80046010       5.29891461       2.46958004
Tm       3.60971780       0.26848419       8.66745792
Zn       5.84019389       7.19653719       6.49584885
Zn       3.24500096       7.19506888       5.57933617
Zn       3.95142532       3.07244582       7.71614071
Zn       1.98244959       5.07461522       4.95249376
Zn       3.92996335       1.28554860       3.60237712
Tm       1.64322370       2.22726166       5.91006234
Zn       2.59457358       5.20189299       7.41858791
Zn       1.30901115       1.28564043       2.67737201
Cu       4.56933425       3.24182774       1.79753971
Zn       0.71428358       1.19531627       8.53259455
Cu       4.53100034       1.42981836       6.06673914
Cu       3.84084392       7.31729085       8.02401515
Cu       1.95298037       3.24571749       0.86614330
20
Lattice="5.213444232940674 0.0 -1.459887146949768 -3.178727061046573 7.35384405539658 -0.02620767615735531 0.0 0.0 7.695033550262451" Properties=species:S:1:pos:R:3 pbc="T T T"
Ga       4.02279574       2.38967641       4.91369912
Ga       1.81654604       2.47472514      -0.33521823
Cr       0.50164377       0.66007993       2.22614556
Ga      -1.51740277       4.90278201       2.13468858
Cr      -2.19169703       5.53526363       6.52164556
O        2.30137050       3.76068911       1.13583231
O        0.71079447       2.06561788       3.17961417
O       -1.29408412       6.59270842       5.58347176
Cr      -0.07532619       6.64588843       4.08199060
Ga       1.51033322       3.69910162       2.86289569
O        2.92056785       3.94330598       4.12512021
O       -1.40186952       5.12114984       0.31405550
O        3.41802969       2.19188084      -1.08327627
O        0.13855241       4.95211266       3.03884755
O        1.07425965       0.98302605       0.68059426
O        1.46162876       6.06614280       5.27117434
O        0.50397477       3.01538418       6.24084630
O        4.17172207       0.24138536       0.78634571
O        3.56229558       0.99799216       3.79085784
O       -1.75781643       6.66729219       2.86049884
20
Lattice="9.451716423034668 0.0 -1.0939184427261353 -1.5238285001014444 8.642247401246975 -4.111998081207275 0.0 0.0 11.089179039001465" Properties=species:S:1:pos:R:3 pbc="T T T"
Cs       4.13161369       0.22431807       6.71782185
Cs       9.36383062       0.18222228       8.38714339
Br       7.90024494       3.73974778      -1.08567718
Cs       7.54851209       7.43598405      -0.25009076
Cs       0.25095286       4.99467820       7.86448014
Cs       2.77907183       4.21458414       1.17229805
Br       1.44478303       7.00480960      -0.45317910
Br       6.81132683       2.62776803       6.38655711
Br       0.60921313       6.02781449       3.81572229
Br       2.07896003       8.13319174      -4.26642903
Zn       3.06894160       0.21175214       2.05476229
Cs       3.76511982       4.75747920       5.38958212
Br       4.64298363       1.77664215       3.05294399
Br       6.34499011       6.34682661      -3.61984505
Br       3.93483871       3.51445007      -2.16825662
Br       0.81453364       1.19755387       1.92455877
Zn       6.21023446       4.06093163       8.32598820
Br       1.02740419       1.87136799       6.29713435
Cs       7.89118599       3.33138508       2.70274063
Br       5.45374645       6.35338303       2.57761323
6
Lattice="3.4627156257629395 0.0 0.00013276633399073035 6.217793672919054e-05 3.4622919553895612 -0.00015492785314563662 0.0 0.0 10.530034065246582" Properties=species:S:1:pos:R:3 pbc="T T T"
Y        1.08067518       1.90472742       6.51592605
Y        1.07900854       1.90436401       2.80984359
Y        1.07879049       1.90421810       9.92842089
Rh       2.81096570       0.17352910       8.19290583
Zn       2.81123133       0.17335601       4.66373979
Rh       2.81133825       0.17379767       1.13116281
9
Lattice="6.625180721282959 0.0 -0.0017520285909995437 -3.313064966153319 5.740172127541058 -0.0028698588721454144 0.0 0.0 7.649299144744873" Properties=species:S:1:pos:R:3 pbc="T T T"
Cs       0.57288703       1.82324656       6.76475484
Hg       0.57177963       5.65040119       2.93477641
Cl       2.90744392       5.30804438       4.27191559
Co       3.88327121       3.73985926       2.93497652
Cl       3.01281062       2.11103856       4.27137753
Cl      -1.76658749       5.30487205       1.60001010
Cl       2.03680650       3.79762565       1.60114940
Cl      -0.89580678       3.79758973       4.27241389
Cl       4.75660182       2.10981883       1.60416998
12
Lattice="4.417516708374023 0.0 -0.00042885285802185535 0.00196777352306641 8.145182371863452 2.4140260219573975 0.0 0.0 11.320844650268555" Properties=species:S:1:pos:R:3 pbc="T T T"
Te       1.92425893       2.00726434      11.73443786
Mg       4.13254873       2.92819372       7.44232615
Tl       1.92714368       7.88933751       8.53909081
Te       4.13350061       3.08964219       4.55650563
Dy       4.13489056       8.03325298       2.40709187
Te       4.12985930       0.21202902       8.30625748
Te       1.92738633       4.55050338       7.92951454
Te       1.92662429       5.90509235       2.24032316
Te       4.13519581       7.34912715       5.47656481
Mg       1.92508148       5.21257482       5.07531879
Tl       4.13341020       4.76331726      11.17245229
Dy       1.92457831       1.33585000       3.30192696
18
Lattice="5.708934783935547 0.0 -1.8086109161376953 -0.5728876487692781 5.671206730854278 -1.8048362731933594 0.0 0.0 9.93316650390625" Properties=species:S:1:pos:R:3 pbc="T T T"
Ba       4.62580171       1.86816397       1.53811309
Ba       1.47494404       4.69462108       1.53179020
O        2.03548266       1.99153724       7.96597288
Mn       4.77965808       5.19410609       2.04197739
Pr       3.49514047       3.76778029      -2.03813160
Pr       3.13150798       0.20888597       6.72066831
Ba      -0.04523453       3.01131657       6.61815591
O        4.74854852       1.99862404       7.12647189
Pr       0.92824274       0.92967728      -0.23578291
Mn       2.22495643       2.36257531       3.86610315
O        0.77042612       3.88389065       4.04704301
O        4.15029246       4.49673647       0.05584203
O        3.80473992       0.98863719       4.11464727
O        4.44124684       4.97432591       6.16441603
O        1.73177505       4.96896340       7.02440170
O        3.51314037       3.88917406       3.18142166
O        1.58661954       1.65993546       1.86276694
O        1.05849630       0.98897844       4.96788570
16
Lattice="4.603620529174805 0.0 -0.014057612046599388 -0.007458622988340415 6.768688860835991 -0.005613838322460651 0.0 0.0 6.341366767883301" Properties=species:S:1:pos:R:3 pbc="T T T"
Ca       0.42324969       6.42593949       6.17081546
Ca       2.72886748       1.26399431       4.58467321
Nb       2.72950761       4.59086534       1.40431069
N        2.72546372       6.07683263       3.03164986
Ca       2.72950069       1.26059740       1.41945454
Ta       2.72637098       4.63668180       4.57766726
Ca       0.42432842       6.38397755       2.99808184
Ta       0.42542263       3.04697440       6.18429553
Nb       0.42382219       3.05143610       2.99625916
N        0.42916314       1.58547516       1.39155179
N        0.42461086       4.58703785       4.61437314
N        2.72842876       3.07503805       6.14538851
N        0.42803533       1.59381871       4.61924597
N        2.72543946       6.07494208       6.12827146
N        2.72817296       3.08008051       3.02507083
N        0.42531399       4.59109530       1.38595716
18
Lattice="4.746236324310303 0.0 0.01539570651948452 -2.359910124282919 11.006995180029525 0.8297277092933655 0.0 0.0 15.850706100463867" Properties=species:S:1:pos:R:3 pbc="T T T"
Tl       0.18503160       9.64784396      13.08199492
Hg       2.54808130       7.54351032       0.69423017
I        2.54730179       2.98514598       1.79456485
K        0.18859927      10.15794145       7.86700918
Tl       0.18166237       2.73190487      10.14468996
Hg       2.56130973       5.66477355       7.82895701
I       -2.18289914      10.27732943      10.51509774
I        2.55265833       6.13984882      14.18043878
I        2.54826059       1.93765020      12.59629760
I        2.55509859       2.76011596       7.06141593
Tl       0.17571723       3.11876900       4.29466856
I        0.17622473       7.04925949       2.36080720
I       -2.18362234      10.72856122       5.14981438
I       -2.19031388      10.33858519      16.01396550
K        0.17406997       3.44439525      14.93808571
Hg       0.18308497      10.72287179       2.81275806
I        2.56004573       5.70767252      10.46795842
I        0.18488059       6.75353223       6.49394619
12
Lattice="6.680857181549072 0.0 -2.8710522651672363 -1.227584776316463 6.550066773407864 -2.869288206100464 0.0 0.0 9.128934860229492" Properties=species:S:1:pos:R:3 pbc="T T T"
Hg       4.86598759       1.87006274       0.41933334
Cl       0.19037929       3.41962922       3.13308452
Cl       4.53265014       6.16901256      -3.17716370
Hg       0.16373522       0.23421316       7.85325326
Ba       2.88479215       3.50977278       4.98552990
Rb       0.91154162       5.14075745       0.42103335
Cl       3.77571966       1.39714840       2.64293119
Cl       3.06377424       3.02938640      -0.92440392
Cl       1.27206983       0.88000002       5.68199918
Cl       0.81431130       5.57791890      -2.97205532
Cl       5.77474977       2.40449262      -3.45777351
Cl       3.70132879       5.17050625       2.43300300
3
Lattice="3.5843305587768555 0.0 2.059616804122925 1.1929453034968627 3.380073983889117 2.061523914337158 0.0 0.0 4.130640506744385" Properties=species:S:1:pos:R:3 pbc="T T T"
Mn       0.54319361       1.25361123       3.14763381
Ge       2.93317330       2.94495908       3.14385567
Ir       1.73912080       2.10024218       5.21081021
10
Lattice="4.341778755187988 0.0 -0.0010700285201892257 -0.0003279730008557157 6.673391334103743 0.000313147233100608 0.0 0.0 6.684230804443359" Properties=species:S:1:pos:R:3 pbc="T T T"
Y        2.81097670       5.68509218       6.57290659
Y        2.81098880       0.00479943       3.23187691
Y        2.81174741       3.34119519       4.22921664
Ru       0.64072445       4.51244402       2.05729087
Si       0.63939528       0.30442407       1.18661840
Si       0.64070540       2.04742575       2.93058781
Si       0.64118257       5.38407746       4.52812115
Si       0.64067437       3.64099553       6.27329173
Y        2.81134160       2.34649779       0.88563086
Ru       0.64048622       1.17571683       5.40131376
20
Lattice="5.143342018127441 0.0 -1.0784457921981812 -0.8061873722070066 5.012351577875228 -1.286887526512146 0.0 0.0 10.129085540771484" Properties=species:S:1:pos:R:3 pbc="T T T"
Li       4.85292007       1.40655479       8.04536652
O        1.53819127       3.25456071       5.87475944
F        4.96112419       0.48547800       1.30405991
Li       2.42874926       1.89167110       4.59128238
B        2.20689368       3.30737749       7.19272623
F        1.30946129       0.71844945       0.20590410
F        0.65289783       2.81703020       3.40893925
Li       2.91385704       4.76972964       1.24385061
V        0.17604233       4.02610635       5.03637674
V        0.92360583       1.74521101       1.65991774
F        2.74902367       4.63341706       7.39501811
F        1.26155149       2.93159877       8.20730920
F        4.13498806       2.70791818       4.39459068
F        3.30479430       2.34941388       7.19742730
F        2.02126271       0.27688649       5.51939554
F        0.43506225       0.10530869       7.61958434
F        2.36856837       1.05255750       2.73926652
F        2.01041929       3.11283789       1.14628920
F        4.63625806       2.47062610      -0.32461457
F        3.94731776       4.66390576       2.81663412
10
Lattice="4.568470001220703 0.0 -0.857700526714325 -0.0026400901911197167 4.642685616383648 0.0028915805742144585 0.0 0.0 12.621941566467285" Properties=species:S:1:pos:R:3 pbc="T T T"
Nd       2.98328724       4.52976745       3.72193829
Nd       1.34895736       2.21124959       7.61749810
Pb       0.19523013       4.53131351       1.46537560
Pb       4.05049439       2.21031661       9.40638581
Ni       1.04169075       4.53147761       5.98570651
Pb       2.49402310       2.21264249       1.10552705
Ni       4.50865023       2.20975209      -0.74790028
Pb       3.61529026       4.53058960       7.10097356
Nd       1.99996270       4.53522392      11.09418423
Pb       0.75924665       2.20839863       4.46650500
11
Lattice="4.7343902587890625 0.0 -1.398483395576477 -0.8449547017945493 7.374911638220106 -2.9067206382751465 0.0 0.0 8.721898078918457" Properties=species:S:1:pos:R:3 pbc="T T T"
Dy       3.91704127       4.68573926       4.72097697
Dy       0.13187166       0.70000174       0.64709711
Dy       0.23512627       4.47357778       0.97031872
Dy       1.08010920       6.67438977       3.81622442
Dy       3.81398683       0.90035937       4.40064608
Dy       2.92084613       2.31812573       1.36013023
Dy       1.13068343       3.05917854       4.01745012
Dy       2.12650550       6.08297580      -1.35136454
Ga       0.96718113       0.16132631       3.48098813
Ga       3.08111773       5.22156803       1.88732387
Pb       2.02446143       2.69069376      -1.67533806
6
Lattice="4.386529445648193 0.0 0.0024381617549806833 -0.0059736557607820715 4.734274433311595 -0.35710299015045166 0.0 0.0 8.411572456359863" Properties=species:S:1:pos:R:3 pbc="T T T"
Al       2.72391227       0.66461978       0.45211938
K        0.53280929       0.92106477       3.21795299
K        2.72574746       3.36705999       5.70216417
Al       2.72276915       3.07949285       1.59844301
Al       0.52807375       3.61180080       0.06903167
Al       0.53085551       1.19025864       7.32485343
8
Lattice="3.8928637504577637 0.0 -0.0016967939445748925 -1.9462823015816748 6.110131906239949 -1.1131582260131836 0.0 0.0 8.150808334350586" Properties=species:S:1:pos:R:3 pbc="T T T"
Se      -1.24240854       4.36022861       3.35913941
Li       0.70002143       3.27243555       5.14263553
In       2.64847324       3.26172538      -0.04876577
Se       2.64821738       1.62267656       5.87848127
In       0.70141002       6.09182505       2.54268792
In       0.70041356       1.62978377       1.80925551
Li      -1.24331437       6.08039670       5.49638516
Se       0.69862571       5.00043523      -0.86278694
12
Lattice="6.266057014465332 0.0 -0.5397341251373291 -3.156824358218728 5.410999709630727 -0.5466925501823425 0.0 0.0 12.091431617736816" Properties=species:S:1:pos:R:3 pbc="T T T"
La       2.20470812       0.55830626       0.99404444
La       2.18750813       4.16490255       0.44896579
La      -0.93804730       2.36031416       0.99267645
Sm      -0.16690961       3.70523119       9.71469820
Tb       3.75934758       3.26308979       6.49727382
Tb       0.63360946       1.45878732       7.03879637
Sm       4.55821806       1.01956692       3.81703866
Sm       2.97462536       1.89655485       9.71870337
Ho       0.61815179       5.06595576       6.49603842
Sm       6.11170367       0.09491190       9.71904105
Sm       1.41771740       2.82572203       3.81825761
Sm      -1.72013185       4.62718600       3.81738352
20
Lattice="10.195551872253418 0.0 -2.032792806625366 -4.1984224133736925 9.275980433087064 -1.9726471900939941 0.0 0.0 11.56609058380127" Properties=species:S:1:pos:R:3 pbc="T T T"
I        5.98139170       0.86278162       4.86175545
Fe       3.82515928       7.54560746       7.59112201
K       -2.10358035       8.00827372       8.83441345
Cs       6.40109188       2.52455713       8.79182865
I        9.62458158       1.08285152       6.68785505
I       -2.23404103       7.47881153       5.14776017
Cs       0.98663653       5.99838975       3.04356895
K        9.47634000       0.53829180       3.00003771
I        2.06948547       2.80520072       5.13845961
Fe       3.55102177       0.96531887       4.22100010
Fe       6.63097150       5.76604428       1.79648054
Fe       0.77022556       2.80154860      10.01668225
I        7.74705352       3.59549612       1.16633305
I        1.40067559       7.69282754       6.95845565
I        4.32799370       6.36070675       0.88950160
I       -1.64526825       8.30171757       0.95937397
I       -0.36705332       4.92482702      -0.87420328
I        3.06346996       2.19019018      -0.64517596
I        9.04025877       0.17347663      -0.69004822
I        5.32994788       5.71104097       6.66437032
12
Lattice="4.155401706695557 0.0 -0.0004078649799339473 -2.0740019615328573 3.599991023507411 -0.004313552286475897 0.0 0.0 6.103809833526611" Properties=species:S:1:pos:R:3 pbc="T T T"
Ca       1.01016119       2.83152826       0.11752851
H       -0.09614929       2.19551264       2.22473359
H        3.08762916       1.63166146       5.57198503
Co       1.00733081       0.42922742       2.35075962
H        2.11509012       3.46816142       4.11423796
H       -0.09990160       3.47342412       4.10285287
Ni       1.01027734       2.83007128       3.17268721
H        1.00559913       0.43150989       0.77302780
H        1.00991693       1.55579859       4.11402537
H        2.11648682       2.19045486       2.23624016
Co       3.08757837       1.63122426       3.98603196
H        3.08259069       0.50623420       2.23429104
8
Lattice="6.182120323181152 0.0 -1.6834979057312012 -3.618232139271754 5.0047246180273435 -1.6807442903518677 0.0 0.0 6.3949875831604" Properties=species:S:1:pos:R:3 pbc="T T T"
Ag       2.63368237       1.59146091       3.13024805
K       -0.46306395       1.59148194       0.77309295
Cr      -2.26715327       4.09804169       3.12855931
S        2.25528556       0.86919592      -0.77718918
K        0.82011290       4.09380577      -0.90470602
S        1.87349664       3.87828619       2.12141465
S       -2.15405949       4.30694397       0.98751956
S       -1.25234377       2.31120827       3.79622049
12
Lattice="3.7717809677124023 0.0 -0.7050639986991882 -0.1290666542430861 3.7661787986924944 -0.70412278175354 0.0 0.0 10.487841606140137" Properties=species:S:1:pos:R:3 pbc="T T T"
Na       0.81267519       2.68597105       9.69792799
Ti       2.42622321       0.45472393       7.89153620
O        2.76119289       0.80145518       9.70094009
Sm       0.14833042       1.99682555       6.13287131
O        3.08902494       3.08794760       0.95829391
Ti       3.10368169       1.15329182       1.04169843
O        0.48545848       0.39761801       7.94859661
Sm       1.47957718       3.37429966       2.78153902
O        2.30651103       2.28115615       7.24615132
O        1.26612390       1.20543119       1.66607773
O        2.01298726       0.02714778       5.68143168
O        3.50935014       1.57336935       3.22236658
20
Lattice="4.435385227203369 0.0 0.03341357782483101 0.004015033814998998 8.217030497962051 -0.9609789252281189 0.0 0.0 10.984128952026367" Properties=species:S:1:pos:R:3 pbc="T T T"
K        2.54967420       4.95716826       7.05899281
K        0.66384157       4.33290728      10.37759641
F        1.34693828       2.23010897       6.36169866
F        1.83843771       3.16626339       1.62764350
F        3.20735521       0.04579734       3.84265487
F        0.27181236       6.58414433       6.13880382
F        2.49854611       4.24176196       2.96699877
K        3.55271137       1.04055350       7.83329327
F        2.23305091       1.18060022       5.25486388
F        3.24434354       5.14868525       4.35051289
F        1.81219672       0.42733166       9.72582418
K        0.96918746       6.76757615       3.42408647
Rb       0.05913148       2.42993717       3.63978767
F        2.87472732       5.25942199       9.53393203
F        1.09203315       7.52103244       7.45786293
F        0.64885067       6.51043641       0.91731995
F        0.16667105       1.40626015      10.76083872
F        3.47804048       2.11298045       0.64156043
F        0.26650838       3.41170612       7.62024036
K        2.86415825       7.42071514       0.05975206
8
Lattice="4.652917385101318 0.0 -1.093697428703308 -0.26751859524797245 4.729187825304055 -1.1457303762435913 0.0 0.0 10.380345344543457" Properties=species:S:1:pos:R:3 pbc="T T T"
Tb       0.32955395       1.45379132      -0.37128818
Tb       3.88302589       0.26885833       4.27609090
Tb       0.73774690       4.40254601       1.34119685
Sc       3.21051948       2.04824106       1.41961584
Pr       4.30084195       3.22789368       6.02722871
Sc       2.52982366       3.82731933      -1.44915162
Sc       2.10036982       0.85394764       7.11715009
Sc       1.41181868       2.61787774       4.19020494
4
Lattice="3.958122491836548 0.0 2.2691738605499268 1.320958795798397 3.7378633733072535 2.2633509635925293 0.0 0.0 4.568702220916748" Properties=species:S:1:pos:R:3 pbc="T T T"
Ta       2.28039624       1.13882031       3.21919084
Mo       0.96138312       0.20466308       0.94625383
Ta       4.92002780       3.00758067       7.77128056
W        3.59845997       2.07345459       5.49622582
8
Lattice="5.061540126800537 0.0 -1.2283108234405518 -0.29450237961883025 5.055374395948868 -1.2195254564285278 0.0 0.0 10.983155250549316" Properties=species:S:1:pos:R:3 pbc="T T T"
La       3.72584164       1.34706878       7.67333515
La       2.51186093       0.06175474       2.70189529
La       2.97167024       3.23036013       4.57465653
Nd       0.58818852       0.70376048       5.80217980
Tb       1.78553401       1.97202201      -0.29295408
Nd       1.04989633       3.87819725       7.68731910
Tb       4.16080160       4.49240753      -1.53936044
Nd       4.89385906       2.58541933       1.46608346
12
Lattice="5.184720516204834 0.0 1.5613398551940918 2.348789193007802 4.627089883466339 1.5648188591003418 0.0 0.0 9.355002403259277" Properties=species:S:1:pos:R:3 pbc="T T T"
Pr       3.92195375       1.15692030       8.79532460
Pr       1.65277239       2.94671475       6.94015222
Pr       2.95451766       0.55939616       2.64877955
Ir       2.63920924       3.55949055       3.63002035
Ir       5.32844614       2.01719961       4.14027078
Ir       3.46189111       0.87296372       5.64997869
Ir       4.63595536       3.18861023       6.42607721
Ir       2.02241284       3.17131423      10.40485571
Ir       0.84689460       0.85571378       9.62536644
Ir       0.87291185       0.87407001       4.86644388
Ir       4.60929321       3.17589989      11.18754167
Ir       3.92509652       4.34051048       8.78270136
5
Lattice="3.4242279529571533 0.0 0.0012060807785019279 -0.0011121831149748832 3.5596485784662653 -0.9415810108184814 0.0 0.0 7.194422245025635" Properties=species:S:1:pos:R:3 pbc="T T T"
Sc       1.75878916       2.66462140       5.36328530
Sc       1.75941838       0.10070542       2.88396122
In       0.04652472       1.38230628       0.52837480
Ni       0.04700680       0.69012549       5.10740576
Ni       0.04726205       2.07707669       3.14123052
6
Lattice="4.680283069610596 0.0 0.0018141943728551269 -2.3406281145230428 4.05304566544313 0.00012867995246779174 0.0 0.0 7.947345733642578" Properties=species:S:1:pos:R:3 pbc="T T T"
Cd       1.90587477       3.14748391       2.39810683
La      -0.43389626       1.79357439       4.43654034
Cd       1.90836438       0.44061091       6.47483401
Ge       1.90594335       0.44293953       2.44443254
Pr      -0.43431887       1.79456427       0.46221096
Ge       1.90598741       3.14567785       6.42361423
12
Lattice="6.280004024505615 0.0 -3.920351809938438e-05 -0.02637658353236925 6.5618518946502595 -0.002190559171140194 0.0 0.0 8.251972198486328" Properties=species:S:1:pos:R:3 pbc="T T T"
Cl       4.01656201       4.45873954       2.41198671
Cd       5.65695836       0.03006657       2.47499208
Pb       2.50401443       3.31144049       4.57294955
Cd       5.65651701       0.02988759       6.67280248
Ca       2.50532097       3.31218909       0.44539055
Cl       0.99183146       2.16427189       6.73226562
Cl       0.75988508       5.52920015       0.44549900
Cl       4.01793982       4.45847358       6.73275962
Cl       0.71562978       5.60956059       4.57100269
Cl       4.29128625       1.01084825       4.57460213
Cl       0.99179063       2.16497961       2.41294402
Cl       4.24936331       1.09645933       0.44881046
12
Lattice="5.746953964233398 0.0 -2.56217885017395 -1.4521210307896846 5.6814016944302965 -2.5985796451568604 0.0 0.0 7.661978721618652" Properties=species:S:1:pos:R:3 pbc="T T T"
Mg      -0.04439896       4.18393563       3.50416345
Ru       0.21575449       0.71439295      -0.26666781
Sn       3.66558894       1.52315006       3.55865787
Sn       2.78854193       4.28340036       2.25126570
Sn       0.81267300       1.38739443       4.78961688
Mg       4.76822095       2.93263969      -1.53736776
Sn       1.05404973       5.59117399      -1.59496274
Ru       3.30455128       5.04166825      -0.33456658
Sn       1.93731229       2.82396909      -0.29079267
Sn       5.35894743       0.04161259      -0.22959305
Ru       3.08749748       0.71374776      -1.55150866
Ru       1.41687682       2.07582884       2.30019557
4
Lattice="3.9737653732299805 0.0 2.2916529178619385 1.324531518768708 3.747937138788523 2.2915279865264893 0.0 0.0 4.586516380310059" Properties=species:S:1:pos:R:3 pbc="T T T"
Al       4.06715023       1.09067275       7.02143323
Ag       2.74215352       2.96372920       4.72792254
Ag       2.74154657       0.15293764       4.72938259
Au       1.41685354       2.02540924       2.43488292
3
Lattice="2.8096251487731934 0.0 -0.0002918498357757926 0.011805919955101385 3.9422375808542296 -2.270674467086792 0.0 0.0 4.543532848358154" Properties=species:S:1:pos:R:3 pbc="T T T"
Ta       2.68681924       2.23322428       1.22752348
W        1.73006970       3.54802501      -1.04292231
W        0.83148898       0.92009658       3.49986676
6
Lattice="4.123316764831543 0.0 1.7933484315872192 1.9164558534877896 5.156633860005165 1.2323009967803955 0.0 0.0 5.635237216949463" Properties=species:S:1:pos:R:3 pbc="T T T"
Er       4.68831963       1.88767560       5.67281764
Zn       4.58104130       4.96646327       5.92525269
Zn       3.45792214       1.94245364       2.87231376
Er       1.65629851       4.15687019       1.37927585
Zn       1.76309158       1.07736668       1.12526178
Zn       2.88934623       4.10328209       4.17813045
8
Lattice="4.222967624664307 0.0 -1.7746833562850952 -2.5039451814524374 5.253349071242774 -0.07918942719697952 0.0 0.0 5.824296474456787" Properties=species:S:1:pos:R:3 pbc="T T T"
F       -0.17741010       1.22730739       3.94765003
F       -0.89416926       2.77185761       2.22464945
O        0.45336456       0.29715636       1.14559154
F       -0.33817073       4.63218995       3.64380425
As       0.02779292       2.92979486       3.67058500
F        0.40137741       3.08727149      -0.45930502
O        1.51052245       0.31108596       0.70921644
F        1.57615820       2.92763618       3.02910115
11
Lattice="6.377718925476074 0.0 2.0101065635681152 3.18171252520085 5.803611019412471 1.001204252243042 0.0 0.0 7.46776819229126" Properties=species:S:1:pos:R:3 pbc="T T T"
Tm       7.24446088       5.72765239       7.13679697
Se       5.56742716       3.72977888       8.18999799
Na       7.24876780       3.82696468       3.40324072
Na       4.05401907       5.74533593       2.39741209
Mn       4.05464167       3.80087211       6.13099064
Se       9.05445214       5.60826635       9.28164516
Sc       7.24751886       1.87848989       7.13755594
Se       5.54534086       2.02601359       5.02439677
Se       2.57550910       2.02859659       7.24134317
Se       5.43836959       5.60649903       4.99035712
Se       2.54662863       3.72949592       4.07680046
12
Lattice="4.716445446014404 0.0 -0.0057632108218967915 -0.01787035094900711 4.850082854113172 0.04965725541114807 0.0 0.0 7.5187458992004395" Properties=species:S:1:pos:R:3 pbc="T T T"
Sr       0.86009184       2.09466461       2.73768941
H        0.80748069       3.34236163       0.48988280
Sr       3.21266929       4.55230455       7.48832443
H        4.51919788       1.00749930       5.69501659
H        0.85413884       0.84079788       0.55708275
Sb       3.18146625       4.45011300       3.47992897
Pd       0.83519302       4.60342158       4.92246129
H        2.80062160       2.21883664       6.97296277
Pd       3.28436336       2.16783091       5.09839252
H        1.92380479       1.03799796       5.56551186
H       -0.00449596       3.18452479       5.73914998
Pd       0.94054058       2.09324114       6.86292960
12
Lattice="4.272902488708496 0.0 0.00828472152352333 0.029850308660581196 8.699185655920303 -2.106682777404785 0.0 0.0 9.492374420166016" Properties=species:S:1:pos:R:3 pbc="T T T"
Te       4.14414720       2.44743333       6.80334937
Li       4.15724952       6.90604250       3.46014098
Sm       2.01254521       4.52325438       5.74434954
Te       2.02347234       8.19375688       2.32298348
Sm       4.15910216       7.80882300      -0.08947306
Y        1.99737402       0.37743432       7.44739937
Te       4.14862784       4.13597346       3.32977831
Te       2.01730863       5.38387364      -0.55169076
Te       1.99904803       1.19086038       0.95336647
Li       2.01721496       5.42489519       2.19129025
Te       4.15742914       6.95348841       6.20108846
Y        4.14611897       3.26424637       0.30572139
6
Lattice="4.276881694793701 0.0 -0.001313035492785275 -0.002157686309724583 4.8031911771975455 -2.767544746398926 0.0 0.0 5.559759616851807" Properties=species:S:1:pos:R:3 pbc="T T T"
Ba       2.10933430       4.50081075       1.99180161
Rh       4.24788557       4.50070912      -0.78966819
Rh       2.11144501       1.29920340       1.98238256
Rh       2.10949786       2.89960283      -0.78845990
Rh       4.24933340       2.10112960       0.59535692
Rh       4.24892062       2.10012758       3.37850822
4
Lattice="3.6035375595092773 0.0 -0.005082034505903721 -0.008475451702075984 3.6026585543199223 -0.004938224330544472 0.0 0.0 7.242885589599609" Properties=species:S:1:pos:R:3 pbc="T T T"
Ho       0.84014109       3.30971961       0.82853711
Zn       2.64608288       1.50816711       2.55128870
Tm       0.84088924       3.31107137       4.20454419
Cd       2.64478270       1.50737313       6.11198014
11
Lattice="7.3508453369140625 0.0 -1.2051321268081665 -3.8536806346622834 6.262044194547999 -1.204429030418396 0.0 0.0 8.024412155151367" Properties=species:S:1:pos:R:3 pbc="T T T"
Ge      -0.78116761       2.17047395       5.46108027
Br      -3.64224399       5.99297796       3.09871027
Na       2.82132775       4.26242944       4.25538876
K        1.12540813       1.10127232       1.44849074
Br       0.06263933       3.67774485       3.19221213
Br       5.72183603       0.65866212       6.52631475
Na       2.96265177       0.07412860       5.45942722
Br      -1.78194589       4.60910976       6.61729044
Br       3.96879246       1.73986028       3.09627955
Br       1.81559251       2.59820223       6.61540297
K        4.65606531       3.23844293       0.24382895
4
Lattice="3.517939805984497 0.0 0.0016886538360267878 -0.0007698818805403421 4.4991940793332725 -0.002174542285501957 0.0 0.0 4.503489971160889" Properties=species:S:1:pos:R:3 pbc="T T T"
Hg       2.27377967       3.76281392       1.16745739
Rh       0.51464682       1.51365816       1.16601506
Te       2.27439997       1.51388450       3.41901909
Rh       0.51376362       3.76355461       3.41768517
10
Lattice="3.796386241912842 0.0 -0.002989807864651084 0.011605019957098603 5.578746169261219 -3.000352144241333 0.0 0.0 6.344906806945801" Properties=species:S:1:pos:R:3 pbc="T T T"
H        2.99597258       0.24043136       5.54378372
Mg       1.09819729       0.32620685       5.40202374
Na       1.10430431       4.15709465      -1.01089977
H        1.10551972       4.40143374       1.08711394
H        1.09845059       2.19010385      -0.22767771
H        1.10473022       3.93178697       3.22595555
H        1.09810101       1.37145517       3.66190245
H        2.99832384       2.50071202       1.76682139
H        1.10018816       0.53877784       1.18819853
Mg       1.09705123       2.40536513       1.91344603
7
Lattice="4.2856035232543945 0.0 0.0018088521901518106 0.0013481263434445966 4.201648019043458 -0.925778329372406 0.0 0.0 9.93367862701416" Properties=species:S:1:pos:R:3 pbc="T T T"
Zn       1.12882128       3.86202665       0.30556857
Zn       1.12891355       2.13857149       2.48373090
Bi       1.13181657       1.35693315       8.87909644
Zn       3.27070993       1.77207639       0.82725171
Zn       3.27170510       0.02447027       2.91106151
K        3.27929320       3.00341639       6.37471324
Bi       1.12911369       0.44202649       4.78960980
8
Lattice="5.496871471405029 0.0 -2.4733190536499023 -1.1120529149230265 5.385038326766474 -2.4657673835754395 0.0 0.0 7.423413276672363" Properties=species:S:1:pos:R:3 pbc="T T T"
Te       2.40080010       4.97098053      -2.56000795
Cu       5.11463637       1.57228962      -0.16363331
Cu       1.80868546       4.26197876      -0.15841332
Al       3.46119452       2.91690453       3.55204643
Ga       1.26824039       0.22252746       6.02107191
Te       1.79155924       0.86614243       3.47335851
Te       0.19128003       2.28922151      -0.09093275
Te       3.97258424       3.54580549       1.01409286
5
Lattice="3.4357316493988037 0.0 1.2967220544815063 1.574405129603349 4.689640427898673 1.0392835140228271 0.0 0.0 5.159498691558838" Properties=species:S:1:pos:R:3 pbc="T T T"
Ta       3.75611810       1.33288462       2.07871001
Ta       4.10092118       4.22265363       6.34163753
Ga       1.42323856       0.43654352       3.04182560
Ga       2.72557117       2.30504683       4.79192756
Ga       1.69889124       3.25054452       2.32976015
16
Lattice="7.854909420013428 0.0 4.238523960113525 2.7898954539902823 7.339339084771633 4.232412338256836 0.0 0.0 9.410951614379883" Properties=species:S:1:pos:R:3 pbc="T T T"
La       0.97108098       0.45156816       5.56604799
La       4.84462511       0.55497465       7.78842852
La       0.65677796       0.23515125       1.68396111
Re       4.80635930       5.94488217       7.86042719
La       6.16050746       4.31301337       9.80318895
Ge       8.73449400       5.94315771       9.97739150
Ge       7.33809836       2.27455776       7.86301154
Ge       3.40944411       2.27440618       5.74381445
La       2.43745711       4.31178454       7.79098176
La       1.98127887       3.99463836       3.69638869
I        3.40868964       2.27407305      10.44779091
La       4.38148269       0.23809245       3.69105954
I        4.80769981       5.94547974      12.56625406
La       5.84905137       4.09448918       5.91799368
I        7.33972268       2.27554969      12.56568439
I        8.73266934       5.94283837      14.68327999
4
Lattice="4.584507465362549 0.0 -1.2735792398452759 -1.2307041144061526 7.780413735405474 -4.521043300628662 0.0 0.0 8.929445266723633" Properties=species:S:1:pos:R:3 pbc="T T T"
Cs       3.85694003       3.79673853       2.22855193
Cs       2.87448183       5.85427624      -1.31060868
Cs       2.89673875       1.60799736      -1.20748575
P        0.90690186       3.78475804       0.51227726
14
Lattice="3.960036277770996 0.0 0.006968105677515268 0.015875001297440076 6.741429710871413 0.05042523890733719 0.0 0.0 6.769747734069824" Properties=species:S:1:pos:R:3 pbc="T T T"
Li       3.81047324       1.27733621       2.38199575
Fe       2.83660260       1.27198336       5.76917062
Li       3.84672375       4.63971148       5.80424174
F        0.84349824       5.05989561       0.63405474
Fe       0.85907258       4.63913648       2.41018499
F        2.86600124       3.04906315       6.20523892
F        0.84239820       4.22537184       4.17773623
F        2.82518408       4.63314091       2.41112019
F        2.85149002       0.84232642       0.76123899
F        2.84825950       1.69557331       4.00329259
F        0.84231501       6.43138901       2.83359597
F        0.86980379       1.27305029       5.76100766
F        2.87003231       6.23453111       5.39325146
F        0.83318332       2.85335305       1.98008642
16
Lattice="4.414585590362549 0.0 0.0013854487333446741 -0.0004099553850893088 8.390170087335578 -0.1995731145143509 0.0 0.0 14.37378978729248" Properties=species:S:1:pos:R:3 pbc="T T T"
Pr       2.54773366       4.24680467       1.12377867
Pr       0.33976552       0.18351911       2.82827041
Pr       0.33952997       0.42883046      12.50869818
Pr       2.54707572       0.02728152       8.22894532
Te       0.33969794       6.41531141       0.11994260
Te       2.54758853       0.76026323       5.09342428
Pr       0.33856573       4.46246232      10.03694323
Te       0.34138074       2.39677423       7.57752366
Te       0.33935613       3.37689571       3.33981822
Te       0.34142743       6.13647499       7.19509645
Te       2.54706209       2.09945788      10.71389493
Te       2.54632542       1.04744589       0.58970938
Te       2.54704572       6.37103866       3.57556846
Nd       2.54971677       4.03346970       5.76350781
Te       2.54640758       6.72752453      10.86319540
Te       0.33954065       3.76254351      13.19507513
6
Lattice="3.278688907623291 0.0 -2.6330277250963263e-05 -0.0006258208322478161 3.278295934070893 -0.00017053354531526566 0.0 0.0 9.62179183959961" Properties=species:S:1:pos:R:3 pbc="T T T"
Sc       1.75397783       0.72197867       6.30831636
Sc       1.75385792       0.72157336       9.34248875
Pd       0.11452666       2.36121242       4.65274386
Ni       0.11423620       2.36073388       7.82732425
Sc       1.75398462       0.72224798       3.01440596
Pd       0.11448480       2.36120577       1.37629393
10
Lattice="5.21453332901001 0.0 2.043107032775879 2.195628037996015 4.733080225307518 2.043785333633423 0.0 0.0 7.622322082519531" Properties=species:S:1:pos:R:3 pbc="T T T"
B        5.76520161       3.75546532       3.65016385
Pt       2.97893065       0.36949659       3.09560216
Pt       1.52161738       2.65537108       3.09635369
Pt       2.05772116       1.38936036       5.41927508
Pr       5.12351599       0.01605960       5.28662234
Pt       0.07619804       0.12339322       6.74792497
Pr       4.20782900       2.76394334       7.58744561
Pt       2.59825205       0.12145650       7.73918666
Pt       4.04021677       2.65470050       4.09211677
Pt       1.13638861       2.40809883       7.74253150
8
Lattice="5.1144537925720215 0.0 -0.002427401253953576 -0.007185097557077246 5.124448507430604 -0.004459056071937084 0.0 0.0 10.384683609008789" Properties=species:S:1:pos:R:3 pbc="T T T"
Sm       4.65248362       4.48823704       8.97509483
Sm       2.09938094       1.92730724       3.74304393
Ho       2.09656547       4.48722328       1.16920152
Nd       4.65798246       1.92594818       6.35837740
La       2.09663809       4.48902507       6.35861575
La       4.65753043       1.92656090       1.16996608
Sm       4.65349928       4.48764540       3.74522736
Sm       2.10045348       1.92550193       8.97859716
8
Lattice="3.956578254699707 0.0 -0.000550601223949343 0.0014185658846907808 5.574394999250998 -0.10155606269836426 0.0 0.0 5.576507568359375" Properties=species:S:1:pos:R:3 pbc="T T T"
Al       3.92339105       5.13229538       2.64488750
Al       3.92352046       2.24813117       0.01123063
Pt       1.94504222       3.72585578       1.37233057
Pt       1.94449224       0.93126700       1.34181529
Au       1.94535164       3.64528311       4.16171500
Pt       1.94408927       0.85457146       4.13225539
Pt       3.92297230       2.27925844       2.72519637
Pt       3.92294135       5.09905079      -0.07626568
6
Lattice="4.2616167068481445 0.0 -0.598949670791626 -0.1832463038732613 4.231124950193787 -0.6052137613296509 0.0 0.0 7.103360176086426" Properties=species:S:1:pos:R:3 pbc="T T T"
Ag       2.83762694       3.60217634       3.16790299
Cd       0.80285070       1.49343901       3.81184201
Ag       0.40353096       3.27673194       1.33587772
Cd       2.23116865       2.96149588       5.95660035
Cd       2.62207340       1.17338363       1.37350423
Cd       0.16454156       0.81952647       6.58470264
9
Lattice="4.6417694091796875 0.0 -0.0006974138668738306 -2.331041880314956 4.015628806802761 -0.0010291762882843614 0.0 0.0 4.910991668701172" Properties=species:S:1:pos:R:3 pbc="T T T"
Cu      -0.44617403       2.91320102       0.20819121
Ba       4.20061640       0.23762606       2.66430470
H        1.88023230       0.36133304       1.21321144
Co       1.87878516       1.57963928       0.20858458
H        1.87919205       0.36085470       4.11763713
H        0.82227535       2.18452948       1.21109610
H        2.93121536       2.18356130       4.11310381
H        0.82190540       2.18438228       4.11755626
H        2.93181382       2.18508453       1.21422227
4
Lattice="3.3651015758514404 0.0 0.9833243489265442 1.5464670312978233 2.993139619921662 0.9776792526245117 0.0 0.0 6.3272624015808105" Properties=species:S:1:pos:R:3 pbc="T T T"
O        1.65453950       1.30902162       2.39982410
La       2.80062591       2.00776818       4.75415838
O        3.94951443       2.70804090       7.10490517
Y        0.34551967       0.51121661       0.60984601
10
Lattice="4.735626697540283 0.0 2.7079150676727295 1.5511542872559394 4.5215268558724615 2.4898219108581543 0.0 0.0 5.62549352645874" Properties=species:S:1:pos:R:3 pbc="T T T"
O        2.97232601       3.59959921       5.37488821
O        2.75696924       1.38668420       7.19601079
Er       4.62593684       0.62957685       6.06957023
Mn       4.82422365       4.16820792       5.49526836
O        0.43661473       0.28119109       5.65790100
O        3.07380450       0.90186004       4.47752417
Ga       1.63815711       1.89690581       5.73584429
Er       3.01109389       2.88866598       3.16991852
O        0.91338177       2.49178307       3.95812951
O        5.15268214       3.19793368       9.36831495
12
Lattice="4.165760040283203 0.0 -0.7036190032958984 -0.12129004431460172 4.163037941657018 -0.7048874497413635 0.0 0.0 12.671524047851562" Properties=species:S:1:pos:R:3 pbc="T T T"
Tb       2.91322395       2.36244833      10.23370562
Ir       0.64850731       0.02935851       9.50841864
Ga       0.37986228       1.89744072       7.91883544
Tb       1.58459655       0.99896842       2.37026014
Pd       0.06062045       3.71038256       6.02314701
Ga       1.05208631       0.44683993      11.89228922
Ga       1.89230590       3.45756805       4.19837646
Ga       4.03739560       1.37615553       4.19094053
Ir       3.35776303       0.67911030       0.18272611
Ga       2.40183395       3.97839965       7.21394029
Ir       1.21321079       2.75998964       0.18099892
Rh       3.71914804       3.19409136       2.32025459
7
Lattice="3.698401689529419 0.0 0.0015072203241288662 -1.8527539377068931 4.709600531743848 -3.2119321823120117 0.0 0.0 6.452934741973877" Properties=species:S:1:pos:R:3 pbc="T T T"
Nd       1.92637811       2.01979947      -0.14222670
Nd       0.07821092       0.93707142       3.07398646
Ho       1.92335089       3.83417463       3.08682973
C        0.07274391       3.13823252      -1.78334328
C        0.07923131       4.52861968       1.50501253
C        0.07826629       4.55642918      -1.79641507
C        0.07532459       3.11037783       1.52253181
4
Lattice="4.478122234344482 0.0 2.5877764225006104 1.4927545555823372 4.222665066436896 2.588989734649658 0.0 0.0 5.173563003540039" Properties=species:S:1:pos:R:3 pbc="T T T"
Yb       2.09265731       2.18935078       2.19095087
Ce       3.58539199       0.07836025       4.77759858
Zn       3.58643550       3.24447793       4.78056284
Zn       0.60101885       1.13234691       4.77685437
8
Lattice="4.762786865234375 0.0 0.005441287532448769 0.013434908083378598 5.025054138127768 -2.8787152767181396 0.0 0.0 5.795924186706543" Properties=species:S:1:pos:R:3 pbc="T T T"
Ag       0.26978018       2.42691625       3.38947861
Ag       0.27345203       4.91827199      -0.96312259
Li       0.27371817       4.93590902       1.93451520
Ag       2.64369088       0.73034007       0.46273305
Li       2.65166038       3.23420475      -0.92449812
Ag       2.64400558       0.73931853       3.38274749
Ag       2.65202994       3.27580610       1.94133508
Au       0.26727668       2.43780038       0.45290376
11
Lattice="4.456243991851807 0.0 0.0022288283798843622 -0.009292492405134913 6.713516003150393 -3.900308847427368 0.0 0.0 7.764106750488281" Properties=species:S:1:pos:R:3 pbc="T T T"
Ce       3.95870582       2.05514157       2.59160324
Au       1.72797232       4.29581742       1.09200770
Zn       1.73331613       0.07202540       4.03464234
Zn       1.72692502       4.29427482       3.58006571
Au       3.95598454       5.72540977      -0.46932679
Ce       3.95317685       6.53302251       2.57614329
Zn       1.73466226       1.79707809       0.14452791
Au       1.72503821       6.35766262      -2.49420007
Au       1.73284636       2.22445409       5.27370384
Au       3.95731512       2.85761509      -0.46637420
Au       3.95680553       4.28945773       4.81429951
9
Lattice="3.6574366092681885 0.0 -0.018780171871185303 -0.05242930379140939 6.285654280881888 -3.6770386695861816 0.0 0.0 7.283193111419678" Properties=species:S:1:pos:R:3 pbc="T T T"
Ti       2.27892587       5.33302257       1.09146811
Ti       2.31545721       0.58462501       1.11140606
Ti       0.45581481       4.45122523       3.34752574
Ti       0.48270297       1.45801867       3.36764511
Ti       2.29751511       2.94656005       5.23417799
Ti       0.46871816       2.95469435       0.74800792
Pb       0.45241102       5.05108255      -1.16559969
Ge       2.29746444       2.95378432       2.47511570
Pb       0.48557730       0.86010056       6.14102399
10
Lattice="5.303470134735107 0.0 3.076953887939453 1.7709408715738555 4.999102841250661 3.0778515338897705 0.0 0.0 6.136871337890625" Properties=species:S:1:pos:R:3 pbc="T T T"
Rb       2.55310063       2.44374347       5.52823006
Rb       6.08875273       4.94199068      11.67145718
Rh       4.32128408       3.69338629       8.60059890
F        5.97585965       4.86258472       8.60457864
F        2.66669064       2.52382731       8.59596052
F        5.14776198       2.52323733      10.03472446
F        5.14844939       2.52252042       7.16300064
Na       0.78406572       1.19521529       2.45460743
F        3.49403728       4.86309008      10.03627741
F        3.49431330       4.86234247       7.16449107
10
Lattice="3.7833902835845947 0.0 0.0010885855881497264 -0.009074749169073441 8.016529668970195 -0.014759354293346405 0.0 0.0 8.033782958984375" Properties=species:S:1:pos:R:3 pbc="T T T"
Er       1.80129337       7.58001262       1.82838523
Ag       3.69660971       5.26896866       1.36177048
Er       1.80664037       5.08999121       6.96042012
Ag       3.69572209       7.40453426       7.42875848
Er       3.70108600       2.32884810       0.38678273
Ag       3.70003532       3.31099700       5.46650120
Er       1.80730239       3.77685186       3.13987175
Sn       3.69787160       6.33797970       4.39720559
Ag       3.70084553       1.34660997       3.33861138
Er       1.80890739       0.88265851       5.66813839
12
Lattice="4.531096935272217 0.0 -1.3632348775863647 -0.9531175015272748 6.367668270804924 -3.1538219451904297 0.0 0.0 8.21784782409668" Properties=species:S:1:pos:R:3 pbc="T T T"
Cd       4.08365502       2.06947181       2.95540102
Cd       2.37081210       3.20969048       5.47843127
Cd       3.58945396       5.37749095       1.31910626
Cd       3.22639521       2.64054850       0.10627460
Ag       2.75281239       5.82717227      -1.47185561
Cd       0.70776678       4.34620803      -0.05439062
Cd       1.21860205       0.93245619       1.63276137
Cd       1.91340118       6.27320543       3.96108282
Ag       1.52705409       3.64154658       2.66124852
Ag       0.40018564       1.64230476       7.13700243
Au       2.05583857       0.55739062       4.42057604
Au      -0.13310387       4.72254388       5.37712961
6
Lattice="4.475152969360352 0.0 -0.002435531234368682 -2.234898053868165 3.8750343010414823 -0.007622652221471071 0.0 0.0 7.233559608459473" Properties=species:S:1:pos:R:3 pbc="T T T"
Pr       1.93271390       1.00333421       6.92228526
Ga      -0.30304915       2.29440259       1.66405497
Dy       1.93423474       1.00317946       3.30394485
Pt      -0.30345545       2.29499549       4.94257865
Ga       1.93574889       3.58712183       4.94002086
Pt       1.93615884       3.58687723       1.66324708
16
Lattice="7.1699981689453125 0.0 4.020749568939209 2.47385580410274 6.732938212077253 4.023117542266846 0.0 0.0 8.424266815185547" Properties=species:S:1:pos:R:3 pbc="T T T"
Ho       4.17261094       4.39372198       9.12372554
Te       3.19106944       5.94164737       6.66876353
Te       5.54183417       2.57712584       6.66744351
Ho       4.30687555       4.48394428       4.21765278
Ho       2.80186966       0.66373136       6.89306864
Ho       6.77258604       0.66527226       9.12291834
Se       5.53960851       2.57576398      10.88299343
Te       6.77699165       5.94206353       8.68096726
Te       1.95467582       2.57545296       4.65821646
C        3.19082931       5.94077370      10.88280484
Ho       3.23255282       0.96482902       2.37383713
Ho       7.84902315       4.18627816      10.96705452
Se       6.77632144       5.94212373      12.89231054
Se       1.95595445       2.57513472       8.86962272
Ho       6.90492137       0.75899402       4.21532766
Ho       8.27959871       4.48910799       6.44370998
9
Lattice="3.6254024505615234 0.0 0.5803360342979431 1.607068014275399 6.109946135011472 1.5754780769348145 0.0 0.0 11.587709426879883" Properties=species:S:1:pos:R:3 pbc="T T T"
Er       4.26168893       5.54257336       5.50194395
Er       3.75749331       3.21466833       8.65351439
Er       0.37734094       0.05191073       6.53846064
Er       2.87751564       4.41904095       2.53780399
Tm       3.20529474       1.32836884      12.08812209
Er       2.40912100       2.59172588       5.45621630
Er       1.51541470       4.34695056      11.03711151
Cd       1.78631683       0.82606441       9.35992705
Cd       1.00018244       1.82274678       2.64131226
10
Lattice="3.6442923545837402 0.0 -0.0011427195277065039 -1.8213301847575711 6.392993914203521 -0.0034204148687422276 0.0 0.0 7.365669250488281" Properties=species:S:1:pos:R:3 pbc="T T T"
La       1.41755695       1.74604793       4.34641086
Pd      -0.40410377       3.53445133       6.54479696
La       1.41622173       1.06369597       0.65648175
Pd      -0.40359258       3.53126878       2.13762773
As      -0.40276239       4.68287044       4.34071866
Pd       1.41720928       5.66688269       5.81716082
N        3.24085175       1.40295964       6.18518420
N        3.24022807       1.40764963       2.50287324
Pd       1.41777241       5.66855284       2.86068621
As       1.41647000       4.52257400       0.65905064
7
Lattice="5.168895244598389 0.0 0.003938399720937014 -2.5738071382734526 5.718496992021982 -0.8058627247810364 0.0 0.0 8.193926811218262" Properties=species:S:1:pos:R:3 pbc="T T T"
Pr       1.92074504       5.12469069       6.91027117
Pr      -0.66380878       4.29843151       1.14261706
Nd       4.49867563       1.04294522       2.78917326
Pr       1.91808365       3.48278092       3.60293882
Tm       1.91633684       1.85457823       0.32067829
Sm      -0.66784579       2.64962842       6.07985553
Sm       1.91073579       0.21965024       5.27733137
8
Lattice="4.238679885864258 0.0 0.009022791869938374 0.021988161858913367 6.8637948701292135 -2.3488712310791016 0.0 0.0 7.270447254180908" Properties=species:S:1:pos:R:3 pbc="T T T"
La       0.59850338       2.88688142       4.01349767
P        0.59476174       1.12490246       6.49165170
La       2.72040677       2.88650135       0.38368106
P        0.60648252       4.64568974       1.53487829
Ca       2.73105186       6.31561108       2.84131415
P        2.72552973       4.66762071       5.29052432
P        2.71382968       1.10320499       2.74498353
Ce       0.61077934       6.31827155      -0.79607386
8
Lattice="3.5257205963134766 0.0 -0.0018263519741594791 -0.009679743892890754 5.664221122020588 -0.001486426219344139 0.0 0.0 13.351752281188965" Properties=species:S:1:pos:R:3 pbc="T T T"
Y        3.22759950       2.57103222       4.51056286
Sm       3.22232976       5.40468281      12.65043926
Sm       3.22761444       2.57003373       8.00283621
Y        1.46048513       5.40098222       9.47602206
Y        3.22322018       5.40000078       2.79796511
Sm       1.46468405       2.57053323       1.33124407
Y        1.46373828       2.57298414      11.18775607
Sm       1.46011154       5.40138128       5.96883526
10
Lattice="4.934231758117676 0.0 -1.5966378450393677 -0.22774721370154896 6.747753178913368 -0.7127644419670105 0.0 0.0 8.392500877380371" Properties=species:S:1:pos:R:3 pbc="T T T"
Tl       3.38327278       0.70670176      -0.76504301
Tl       4.38697309       1.36004700       2.29465829
Mg       0.30691787       2.73401386       6.51405624
Tl       1.29842496       2.74610552       1.19818430
Tl       1.31335716       6.14083082       1.22966265
Mg       2.20503841       4.29303929       3.97414905
Tl       0.15554634       6.00655681       6.05441281
Cd       4.18432940       4.58383930       1.66722500
Cd       2.45469858       1.26843558       4.75466871
Pb       3.16816567       4.11781153      -1.45271167
4
Lattice="4.119870662689209 0.0 2.3762500286102295 1.3700426341818999 3.8839630205531286 2.3772521018981934 0.0 0.0 4.755286693572998" Properties=species:S:1:pos:R:3 pbc="T T T"
In       3.32517893       2.75349917       3.90974882
Au       0.57997738       0.81208403       3.90960100
Au       4.69725383       3.72493904       6.28501093
Ag       1.95354164       1.78433647       6.28864812
4
Lattice="3.3446226119995117 0.0 -0.028926484286785126 -0.024962493416343212 3.3467151012306946 -0.028228389099240303 0.0 0.0 7.186044216156006" Properties=species:S:1:pos:R:3 pbc="T T T"
Tm       1.56385840       3.09531913       1.91513081
Al       3.24769131       1.42068471       7.11302659
Tm       1.56490119       3.09509771       5.13362415
Ni       3.24750537       1.41992888       3.51782786
10
Lattice="4.064916610717773 0.0 0.00043787885806523263 -0.0001510114946934331 4.067452904758969 0.00033972179517149925 0.0 0.0 10.052044868469238" Properties=species:S:1:pos:R:3 pbc="T T T"
Pd       2.32387643       1.81323150       2.18494208
Nd       0.29106701       1.81330084       4.64411233
Ni       0.29161591       3.84797329       2.18702893
Nd       2.32396469       3.84729397       9.78262104
Ni       0.29297504       3.84818251       7.21139593
Ni       2.32435634       1.81487378       7.21265520
Ge       2.32458371       3.84822251       5.97286135
Ni       2.32422107       3.84646725       3.61965425
Ge       0.29328587       1.81453352       8.46094636
Ni       0.29021828       1.81405203       0.75426293
7
Lattice="4.368459224700928 0.0 -1.5495070219039917 -2.462126351549557 3.93557511668424 -0.0069847144186496735 0.0 0.0 6.9228363037109375" Properties=species:S:1:pos:R:3 pbc="T T T"
Ta       1.82995569       1.38475030       5.63732363
Mo       0.93716366       0.82737118       3.13615740
Ta       1.02919911       3.62483430       3.39060337
Ta       0.06256428       0.27607436       0.66425051
Ta      -0.73611752       2.51501828       5.34764170
Mo       0.15551476       3.07446210       0.92213505
Mo       2.73065715       1.95064268       1.25553213
6
Lattice="4.322084426879883 0.0 -1.4155004024505615 0.0035838984447002357 4.570521380059756 -0.0012141229817643762 0.0 0.0 7.31830358505249" Properties=species:S:1:pos:R:3 pbc="T T T"
Cd       3.52182188       4.49154176       4.86185774
Cd       4.26767694       2.20650950      -0.16510225
Cd       2.09951211       4.49076780       0.51323506
Tl       1.35783583       2.20584356       5.56772159
Cd       2.76955799       2.20748382       2.56676663
Cd       0.62013499       4.49378763       3.30428081
10
Lattice="5.164621353149414 0.0 0.0010180937824770808 -0.005046746335734781 9.950042398407389 -0.021684253588318825 0.0 0.0 9.961042404174805" Properties=species:S:1:pos:R:3 pbc="T T T"
Rb       3.47167384       3.79779309       5.83718844
K        0.88798015       0.32223912       7.34897988
I        0.87956648       8.71745577       0.80384762
Rb       3.46593336       1.81674763       0.85768820
I        0.88479903       3.73804942       8.89544462
Rb       3.46812506       8.77587838       3.86071182
I        0.88749145       1.87491121       3.91306202
I        0.88661038       6.86056050       5.79198232
K        0.88484664       5.29483708       2.35960950
Rb       3.46526023       6.80177316       8.83598528
11
Lattice="3.580925226211548 0.0 0.0009035475086420774 0.002248833878806441 6.2177263007781916 -1.3648375272750854 0.0 0.0 6.944756507873535" Properties=species:S:1:pos:R:3 pbc="T T T"
N        0.04715436       5.98182783       2.84000614
N        1.83692633       1.66185099       5.49174019
Ce       0.04869723       5.14248228       0.53190335
Ce       0.04538274       2.20049198       3.83190791
Ta       1.83648386       5.69477544       3.79154945
Ta       1.83468147       1.64972385       0.56962584
N        1.83873433       3.63571241       0.60816833
N        1.84021499       5.68414611      -1.13070545
N        0.04759911       1.37179725       1.52315892
N        1.83790038       3.71526841       3.74752537
Ni       1.83799133       3.67226002       5.65365536
10
Lattice="4.01100492477417 0.0 0.0053675295785069466 0.06236079415856422 6.467776078775459 -0.02039475180208683 0.0 0.0 8.23843765258789" Properties=species:S:1:pos:R:3 pbc="T T T"
Dy       1.93429369       2.08670141       3.54698558
Au       2.86471111       5.37895038       5.60252237
S        1.73665405       3.31890368       1.07141575
S        1.73971818       3.31317963       6.02327434
Au       2.86703059       5.37624526       1.48294754
Dy       3.74738467       2.19787310       7.67229376
S        3.93755273       0.97202740       5.19827042
S        3.94149906       0.96708594       1.91356967
S        3.62699220       4.29533832       3.54849534
S        2.10374083       6.46037661       7.65901087
8
Lattice="7.592456817626953 0.0 0.005918062292039394 0.00908633400025175 6.948796053623382 -4.030619144439697 0.0 0.0 8.032937049865723" Properties=species:S:1:pos:R:3 pbc="T T T"
Ba       1.87845241       5.76532160       4.27523807
Ba       1.87470464       3.35508090       0.10052012
Ba       1.87084906       1.23201599       4.12073572
Ba       5.95046398       1.23238679       6.91321252
Ba       5.95550344       5.76257352      -1.29241963
Pt       0.11487177       3.45266100       5.50713537
Pt       0.11545281       1.13190815       1.49953539
Ba       5.94564028       3.35698758       2.89254049
5
Lattice="3.6657862663269043 0.0 -1.3972223997116089 -0.5324376123610369 3.625976742255425 -1.3970508575439453 0.0 0.0 5.510875701904297" Properties=species:S:1:pos:R:3 pbc="T T T"
B        1.44149673       2.26140701       3.08808362
B        0.42470978       1.08433442       0.41592971
Y        2.49980170       3.48648315       0.35291679
Ru       1.98357966       0.76700924      -1.00697824
Ir      -0.11601642       2.57906784      -1.00709237
12
Lattice="5.579329967498779 0.0 -2.554476261138916 0.10535854553718774 6.3829381797017195 -2.6659936904907227 0.0 0.0 9.271015167236328" Properties=species:S:1:pos:R:3 pbc="T T T"
Li       2.69745796       3.63572264       1.47016158
Li       3.55302683       3.57338279      -1.23214874
Pr       0.07396870       2.21190975       5.02783322
Pr       3.38443414       3.79102498       4.76474905
Pr       0.22529670       5.29571071       3.39247123
Pr       0.61560901       1.82488866      -0.47630896
Pr       4.15966041       0.34470067      -0.21029470
Pr       2.06630525       0.29949981       2.84814773
Tl       1.00232142       4.82634766      -2.40261301
Ru       0.22978231       4.51393469       0.34107739
Tl       3.06197932       0.62842008       5.93927822
Ru       0.42801323       2.68402234       2.37852746
14
Lattice="6.641952037811279 0.0 0.11684560030698776 -1.0317420446447731 6.526234950457613 -0.014460776001214981 0.0 0.0 9.628862380981445" Properties=species:S:1:pos:R:3 pbc="T T T"
Mg       5.77041342       3.22435598       2.77854994
Mg       2.38390909       1.88877338       3.22694747
Bi       3.80545605       3.60253217       5.15426956
Bi       1.03802361       1.60589768       0.56253295
Sb       1.19808457       5.12186500       6.97469801
Mg       5.72118189       3.08282969       7.66515278
Bi       6.32260391       1.31898812       5.15164192
Mg       3.84079641       6.11092287       3.17136196
Mg       4.11876555       6.03613724       7.21136336
Bi       4.56120254       5.05178191       0.39423883
Bi       2.21747986       1.63643322       7.19719967
Bi       4.37407188       1.75938467       0.39557834
Bi       0.94276092       5.40072890       3.80492643
Bi       1.26836542       4.81299138       0.55851593
12
Lattice="4.666560649871826 0.0 0.008541195653378963 0.012294199575756745 4.895743192260922 0.0013479480985552073 0.0 0.0 6.7442474365234375" Properties=species:S:1:pos:R:3 pbc="T T T"
O        0.01193634       1.70016376       2.50321554
Er       2.04050170       2.62142940       2.50889071
Er       1.11603231       0.16397700       5.87496379
Si       3.18299382       2.50174509       5.88410764
O        0.72981959       4.28074135       1.21761946
O        3.15069873       4.14931669       5.88019010
O        2.40693860       1.84500347       0.43658632
Si       4.62754979       0.05772810       2.51313028
O        3.10857557       4.52899526       2.50858792
O        0.05406340       2.06828436       5.87661969
O        0.75304041       4.27758077       3.79049908
O        2.41803508       1.83625752       4.59153616
12
Lattice="5.504593849182129 0.0 -1.293903112411499 -0.5853019733860672 6.260320415103567 -2.577643394470215 0.0 0.0 8.946106910705566" Properties=species:S:1:pos:R:3 pbc="T T T"
Sc       4.63812504       5.42487038       0.58334316
Er       3.75608435       0.12617122       5.89010485
Sc       1.89925546       3.78294534       1.68450453
Er       4.97511217       2.39416672       2.06135335
Er       3.34483794       2.76768049      -1.00074831
Sc       3.17020370       3.28587327       4.66409277
Sc       3.09041584       5.91823266      -2.36993759
Er       0.39081550       4.18982063      -1.44219840
Al       0.89288208       1.51653740       5.98244744
Er       2.21052501       0.60126423       2.91407950
Sc       0.70029745       1.13511279       0.03581892
Al       0.61889529       5.07159614       4.51284566
4
Lattice="3.534148931503296 0.0 2.038578748703003 1.178112229695116 3.3316190314510927 2.033987283706665 0.0 0.0 4.078738689422607" Properties=species:S:1:pos:R:3 pbc="T T T"
Mn       2.06702233       1.01345694       3.68991544
Co       0.88854445       0.18036966       1.65277978
Cr       3.24427584       1.84639020       5.72741210
Ge       4.42391275       2.67996437       3.68764693
5
Lattice="3.9734439849853516 0.0 0.0001798214652808383 -0.0012866549429058425 4.5266950686072756 -0.000150213367305696 0.0 0.0 4.4923176765441895" Properties=species:S:1:pos:R:3 pbc="T T T"
C        1.86664955       1.88328084       1.06458169
Zr       1.86600479       4.14751173       1.06526425
Sc       1.86748075       1.88609376       3.30902880
Zn       3.85220176       4.14733636       3.31283326
V        3.85500312       1.88571791       1.06397628
8
Lattice="4.529860973358154 0.0 -2.452406167984009 -1.3213009848020365 4.329050057004998 -2.4577887058258057 0.0 0.0 5.414753437042236" Properties=species:S:1:pos:R:3 pbc="T T T"
Na       0.72708452       0.29669683       3.16556358
As       3.79333350       1.37969103      -2.00001250
Na       0.86844821       3.54457730      -1.99715818
O        2.34341329       1.80851924       2.57769043
Li       2.32920818       2.46220461       0.71062436
O        3.40990975       1.16498006      -0.32721880
O        0.42301922       2.64018079       0.21011253
O        3.14655547       4.23557221       0.36937655
8
Lattice="3.614985227584839 0.0 -0.5309074521064758 -0.17353584659079477 5.3410708178600546 -1.203789472579956 0.0 0.0 12.412848472595215" Properties=species:S:1:pos:R:3 pbc="T T T"
Ho       0.16866884       3.59340020       9.02012145
Ho       1.93086303       0.70963658       8.45751208
Ho       1.52762600       2.89077303       5.72828539
Ho       3.30618496       0.03752214       5.28019449
Ho       2.85443450       2.14816825       2.23196193
Tm       2.40886187       4.27031754      -0.77102211
Tm       0.57015476       1.41456457      11.72430441
Cd       0.96186775       4.82136716       1.90603418
4
Lattice="4.435735702514648 0.0 0.015839504078030586 0.023037705199836313 3.9938948913875474 -1.4774258136749268 0.0 0.0 6.044038772583008" Properties=species:S:1:pos:R:3 pbc="T T T"
Sr       4.29989472       1.53162909       1.86552674
Ca       2.07378933       0.41992219       4.94951368
Pd       2.08920008       3.18235956       0.20342764
Cu       4.30264330       2.68503333       4.93368068
9
Lattice="4.945559978485107 0.0 -0.708397388458252 -1.637426796066422 4.783585505711825 -2.1984100341796875 0.0 0.0 5.370893955230713" Properties=species:S:1:pos:R:3 pbc="T T T"
Sb       4.66171594       0.18570947      -0.56732243
Sr       2.22914952       2.93230102      -0.31066404
Sb       1.85981021       1.00236752       2.28979815
O        0.85001873       1.04286011       4.02077551
O        3.07991974       0.62814324       0.61767965
O       -0.73260345       4.14781791      -0.57181378
O        2.64909758       2.86491113       2.53051066
O        3.32556653       0.08944893       3.27484360
O        0.50123915       1.84594340       1.06673884
16
Lattice="6.355507850646973 0.0 0.000567191222216934 -0.0034547906754916523 7.332780500999095 -0.0012756844516843557 0.0 0.0 11.5241117477417" Properties=species:S:1:pos:R:3 pbc="T T T"
Nd       1.99811364       2.65291465       2.40362909
Sm       3.06682814       0.80601078      11.03074871
Y        6.22941738       6.30171008      11.04072946
Nd       3.06663184       0.81057983       5.28851947
Nd       6.23614961       2.64037168      11.03135819
Sm       6.24002199       2.64176133       5.29340953
Y        3.06226134       4.48280838       5.29099302
Y        6.23052611       6.29702821       5.28035738
Y        2.01052685       6.30060211       2.39890756
Y        5.17790033       0.79068877       2.40201862
Y        2.00348563       2.65375469       8.16057088
Y        5.17546139       0.79815930       8.15972187
Y        5.18626483       4.48159902       8.15683330
Sm       2.00801592       6.30207940       8.16444343
Y        5.18304318       4.48360778       2.40256373
Y        3.06147535       4.48750817      11.03089784
13
Lattice="4.729393005371094 0.0 1.9719116687774658 2.373447767539886 6.159901704264858 0.9822111129760742 0.0 0.0 6.674768447875977" Properties=species:S:1:pos:R:3 pbc="T T T"
Er       4.12216934       0.99358216       5.13333942
Ga       1.23714354       2.35570488       5.40289502
Ga       5.69463987       5.07261319       8.03836477
Fe       2.94554240       4.07533439       4.63737829
Ga       4.65241638       5.79606537       3.87413688
Ga       3.32275997       3.08549789       7.06081532
Ga       2.28213686       2.35610306       2.88986176
Fe       5.30842669       4.07479650       5.62306097
Ga       4.92501166       3.07687828       3.20816706
Ga       3.60797075       5.79440691       6.38662482
Fe       4.12238210       0.99442332       1.79407162
Ga       2.56773719       5.06738008       2.21455026
Fe       1.75954257       0.99431905       0.80867234
7
Lattice="5.092332363128662 0.0 -2.507474184036255 -1.2394711574600021 4.943537908325392 -2.5125229358673096 0.0 0.0 6.450589656829834" Properties=species:S:1:pos:R:3 pbc="T T T"
S        0.46141200       4.00313011       2.36671299
Hg      -0.03386035       3.34050065      -1.60774714
Ga       3.13640500       0.86862024      -1.60425924
Mn       1.54968219       2.10821159       1.62336451
S        3.48318292       1.28909113       2.59416818
S        2.23994879       2.69160166      -0.50430202
S        0.02012052       0.43584127       2.02397621
8
Lattice="3.67231822013855 0.0 -0.8636370897293091 -0.20795877430573953 3.6718264756715597 -0.8677988052368164 0.0 0.0 8.29708194732666" Properties=species:S:1:pos:R:3 pbc="T T T"
Hf       3.21989163       1.64008804       5.16585102
Hf       2.47499017       2.78991575       1.96337890
Hf       1.93687265       0.27396248      -0.36137060
Ge       0.19145846       2.31706557       0.48010487
Ge       1.08490035       3.26370921       4.31455131
Si       0.74135957       0.95267547       2.82890762
H        3.54587045       0.03689925       6.54428431
H        1.60877112       1.86859748       6.54800723
12
Lattice="5.218848705291748 0.0 1.686706304550171 1.7948803750708744 7.67614710004583 3.4771111011505127 0.0 0.0 9.032951354980469" Properties=species:S:1:pos:R:3 pbc="T T T"
Dy       4.63839742       3.64279620       5.44336828
Tb       2.89695972       3.68816230      10.90339093
Tb       6.39895560       7.51944124       8.96209504
Dy       4.50385120       7.54093207       5.89088854
Sn       3.79484239       5.33040952       8.09860310
Sn       1.99678766       2.04077766       4.66125689
Dy       5.56570833       1.56917812       2.47253987
Dy       2.12683316       5.77477388       4.30976511
Dy       1.15533629       3.73126383       7.32979656
Dy       3.66221056       1.59464344       8.45369768
Dy       3.08101744       7.50824218      10.35210029
Dy       5.44205414       5.79668748      11.97803174
18
Lattice="5.831375598907471 0.0 0.003906512167304754 0.0029582380031164773 6.8862183892461974 0.6102403402328491 0.0 0.0 6.874157905578613" Properties=species:S:1:pos:R:3 pbc="T T T"
Pr       1.89476571       6.71720920       2.64113003
Pr       1.89719100       1.50237316       5.26914617
Pr       1.89944843       3.17660157       1.63340022
Sr       4.81423282       5.82261487       7.34065158
Sr       4.81184568       4.06126463       3.81457351
O        3.28995103       6.38024772       4.98831053
Pd       4.81065681       0.74279630       3.76181243
O        0.50522980       6.37904675       4.98242564
O        0.50705266       4.94572739       2.13595060
O        3.28061927       1.99655116       3.28607197
In       1.89756865       4.93861756       5.57601568
O        3.28027788       1.00524257       0.38077254
O        3.29266118       4.94674982       2.14200914
Pd       4.81301395       2.25470427       6.78225377
O        0.50069164       3.50853461       6.16196518
O        0.51270874       0.99583802       0.37683786
O        0.51348257       2.00039791       3.27811875
O        3.29678933       3.50813114       6.16466341
12
Lattice="4.801034450531006 0.0 0.013210867531597614 0.0216737706422597 5.60851439225626 0.019397690892219543 0.0 0.0 9.515711784362793" Properties=species:S:1:pos:R:3 pbc="T T T"
Yb       1.91098565       1.47307186       0.95341696
Ga       4.30646172       0.06727237       3.34048752
Yb       1.91823310       4.27393983       5.72678940
Ga       4.30732807       0.06997292       8.10545196
Ga       4.32340961       4.26782125       0.97368960
Ga       1.92044115       4.27068448       8.89770053
Ga       1.90625346       1.47035924       7.31289723
Ga       1.91981545       4.27271832       2.55868535
Ga       4.31073833       1.47117040       5.72701329
Ga       1.91093622       1.46728023       4.12463714
Ga       4.31849096       2.87202618       3.35029062
Ga       4.31819931       2.87267839       8.11087354
14
Lattice="6.435960292816162 0.0 3.7211968898773193 2.1438031978234156 6.252187563093605 3.7161333560943604 0.0 0.0 7.436310291290283" Properties=species:S:1:pos:R:3 pbc="T T T"
Cd       4.55448567       3.58992619       5.29247039
S        6.50090429       5.44560911      12.72774599
Mn       3.50275911       0.53103259       7.11211574
Mn       3.50436519       0.53046056       3.46684203
S        6.70275629       5.40495122       9.00773379
S        3.57878914       5.43936445      11.03572364
Cd       6.69789403       2.84652282       9.01028719
S        5.53675890       1.81333502      11.02914384
S        2.59057634       1.81461156       5.28976241
S        5.53805235       1.81424990       6.99651083
Mn       0.22235530       0.52948032       1.56972019
S        3.58225759       5.44904577       6.97570944
S        2.41050396       1.91486235       9.00714552
In       2.40917266       4.47579614       9.00816609
10
Lattice="5.694218158721924 0.0 2.943861722946167 2.082712578349657 5.3007717616914904 2.9528896808624268 0.0 0.0 6.969968318939209" Properties=species:S:1:pos:R:3 pbc="T T T"
Li       3.73004773       1.00116473       8.55245885
Ru       5.21820436       2.01438234       5.69087910
Li       2.02899266       3.72142183       4.87568780
Cl       4.00680342       2.44189955       3.66232595
Na       3.51715322       4.73653040       8.97224203
Cl       6.18136776       5.26058095       9.04045165
Cl       3.42433525       3.06311944       6.83815798
Cl       6.23296413       1.72041225       7.81103496
Cl       1.21042968       0.73031693       1.60877627
Cl       6.47845497       4.05013464       5.50965331
14
Lattice="4.503776550292969 0.0 -0.00894214492291212 -0.011583385372598967 7.722060575703222 -0.00872708298265934 0.0 0.0 7.729154586791992" Properties=species:S:1:pos:R:3 pbc="T T T"
Li       4.27771516       3.22417400       1.60805203
Ga       2.02222096       5.97426138       6.28822107
Sm       4.27664481       4.35183670       4.66262923
Li       4.27024009       7.40908986       5.79223035
Li       4.27372466       5.46889707      -0.00204009
Li       4.28128632       1.28763679       3.54772340
Li       2.02194866       5.14824812       1.92868381
Li       2.02550136       3.55151322       7.41409239
Sm       2.02932720       0.48427299       0.81061205
Ga       4.27945629       2.10764985       6.91512185
Li       2.02016490       7.09233158       3.86647590
Li       2.02774771       1.60739005       5.47423091
Ga       2.02711383       2.72271900       3.05000104
Ga       4.27135315       6.58582211       2.41811849
5
Lattice="4.892354965209961 0.0 0.0043155718594789505 -2.4562139149522433 4.649573162049798 -3.094862699508667 0.0 0.0 6.1640167236328125" Properties=species:S:1:pos:R:3 pbc="T T T"
Cd       0.63752772       1.78846396       0.00548635
Ca       0.63421140       3.62941308       3.08374691
Ca      -1.81482533       4.59851803      -0.00382103
Cd       3.08431886       1.78698766       4.51798174
Cd       3.08356736       1.79048304       1.66129109
4
Lattice="3.5432064533233643 0.0 0.527352511882782 1.7345349326761899 3.0902553313086565 0.5268514156341553 0.0 0.0 12.195310592651367" Properties=species:S:1:pos:R:3 pbc="T T T"
Er       2.51378567       0.77246441       8.42871671
Y        4.68616559       2.04549098       6.00207992
Er       1.58569834       0.23119883       2.49211762
Ca       3.80952694       1.53180144      11.89889266
16
Lattice="7.405943870544434 0.0 3.8869712352752686 2.6957229549539363 6.900297544053765 3.887209892272949 0.0 0.0 9.024357795715332" Properties=species:S:1:pos:R:3 pbc="T T T"
Pr       5.99727133       4.04228925       8.17441617
Pr       2.68374472       4.17454936      10.23250170
Pr       2.48839363       4.04278609       6.33557998
Pr       4.95925906       0.67054054      10.15113180
Au       7.42817805       2.35732220      10.18540342
Cl       7.42779983       2.35756425       5.67461844
Cl       3.72279460       2.35735161       3.72985882
Ru       8.77673135       5.80868593      12.13256133
Pr       6.37949281       4.30266078      12.19564704
Pr       1.45219251       0.67184196       8.30863345
Ru       5.07307351       5.80611495      10.18789029
Cl       5.07344652       5.80783867       5.67734815
Cl       8.77448643       5.80352712       7.61759099
Pr       4.76473164       0.53851236       6.25066790
Ru       3.72360564       2.35578192       8.24094494
Pr       1.07018942       0.41142664       4.28977061
10
Lattice="3.9377143383026123 0.0 -0.009922627359628677 -0.03176833981383186 7.777029956130261 -0.009519827552139759 0.0 0.0 7.782759666442871" Properties=species:S:1:pos:R:3 pbc="T T T"
Tb       0.74628857       7.01022894       1.23902362
Tm       2.71963725       5.72089213       6.41509936
Tb       0.77037551       0.54513163       5.13736272
Tm       2.73488637       1.83115501       2.52982899
Tb       0.76367796       3.11936007       7.71527877
Tb       0.75488892       4.43146539       3.81942603
Pd       2.72592399       4.67933330       1.48337200
Pd       2.74140989       0.79161626       7.46546351
Pd       2.71394425       6.76011236       3.56424890
Pd       2.73129182       2.87297458       5.37787542
8
Lattice="5.277392387390137 0.0 -0.0014780201017856598 -0.010689447179961443 5.280917316327698 -0.005671090446412563 0.0 0.0 9.827862739562988" Properties=species:S:1:pos:R:3 pbc="T T T"
Hg       1.65019888       5.05351123       3.99658766
Tl       1.65572697       2.41244067       2.26464575
Tl       4.28806798       5.05481594       5.72037589
Hg       4.29691782       2.41419912       0.53556443
K        1.65028197       5.05403154       8.91202099
Tl       1.65621583       2.41319957       5.72492367
Tl       4.29187966       5.05410111       2.26389451
Hg       4.29426077       2.41356785       7.46024699
12
Lattice="5.309996128082275 0.0 1.7545174360275269 1.7189842042446342 7.899912528343355 3.741989850997925 0.0 0.0 8.90825366973877" Properties=species:S:1:pos:R:3 pbc="T T T"
Er       5.24228893       3.61819293       3.29944261
Dy       5.36844834       7.23219228      11.85405129
Sm       4.22431592       1.95693010       6.37521975
Er       1.85367096       3.24736540       4.64104993
Er       6.83721006       7.87511644       7.39889027
Er       0.82891566       1.61236836       7.73236138
Dy       6.26059474       5.24125020       9.12504816
Er       3.44363976       7.51210136       8.75606230
Sm       2.75008568       1.26916827       1.92824301
Er       4.34564999       5.56171073       6.02082058
Dy       3.31962502       3.90488986       9.11365392
Er       2.42558112       5.89017890      11.84230217
12
Lattice="4.849299907684326 0.0 -1.8629868030548096 -0.7126301244155404 4.7964044359715 -1.8616503477096558 0.0 0.0 7.316655158996582" Properties=species:S:1:pos:R:3 pbc="T T T"
Tl       2.81404193       2.72170620      -0.39170766
O        0.88542118       1.23169849       5.73202058
O       -0.14482272       4.35110960       1.07145166
Se       0.74322611       0.32139087       1.47025450
Tl       1.42211635       3.91996422       3.26311343
O        3.27645327       2.51254683       4.23840021
O        3.42857296       0.06482159       3.15120286
O        4.38482610       2.29544750       1.80025090
O        1.51977154       1.77866295       1.57154270
O        0.96064941       4.13285614      -1.36129734
Se       4.20517608       1.52311769       3.26749869
O        4.06777957       0.61173739      -0.99176547
12
Lattice="5.106177806854248 0.0 -0.007053278386592865 -2.551122099721625 4.7872797099820295 -3.197833299636841 0.0 0.0 7.222299098968506" Properties=species:S:1:pos:R:3 pbc="T T T"
S        1.17497115       2.39364642      -1.20680658
O       -1.38156306       2.86306173       2.78401383
S        3.72237007       1.42788203       2.81813471
Na       1.17436097       4.31281295       2.81419391
Au      -1.37921581       4.31224198      -0.79622260
O       -0.19260579       0.97083974       1.99629433
O        3.72527987       0.82617356       4.12695304
O        2.37458782       2.85380631      -0.39169455
O        2.52843616       0.97116909       1.98934167
O       -0.01933336       2.85799715      -0.38332752
O        1.17318260       2.99141179       4.70020086
O        1.16931852       0.95811296       6.05575121
10
Lattice="4.403855323791504 0.0 -0.0011813986347988248 -0.0014863780305825341 4.4023272866103 -0.0017944781575351954 0.0 0.0 10.276058197021484" Properties=species:S:1:pos:R:3 pbc="T T T"
Ni       0.42612895       1.26769531       2.52807363
Pr       0.42485905       3.46970349       0.08905597
Pr       2.62825741       1.26895549       4.96353202
In       2.62729250       3.46987247       7.66494131
Sb       2.62746547       1.26666199       1.21879739
Ni       2.62737677       3.47062372       2.52408366
Ni       2.62893626       1.26883058       9.00626256
Sb       0.42581203       1.26844158       7.66544759
Sb       0.42583760       3.47002886       3.83225314
Ni       0.42444526       3.46961218       6.31865413
6
Lattice="4.640225410461426 0.0 1.5746780633926392 0.02344547222648156 4.380850997055522 2.478537082672119 0.0 0.0 5.009151935577393" Properties=species:S:1:pos:R:3 pbc="T T T"
Pd       3.41753412       3.38360986       3.11844715
Pt       3.40361349       0.50906471       3.13553957
Pd       1.08796554       1.97376717       2.33935999
Pt       3.40931502       2.06123266       5.63342646
Bi       1.08344917       0.53285654       4.85560811
Pt       1.10228379       3.46205447       4.83759534
20
Lattice="5.777340888977051 0.0 -0.018282881006598473 -0.026702319891613608 6.563799903644957 -1.6732721328735352 0.0 0.0 8.983695983886719" Properties=species:S:1:pos:R:3 pbc="T T T"
Mn       3.30646374       4.36522637      -0.25336705
O        4.73531591       4.48341863       7.25686776
Sr       0.42738002       1.46275363       5.24844166
Ba       0.40928724       6.17076531       0.05122605
O        0.43022607       0.40089534       7.60765329
O        0.43677584       2.01988922       2.29298714
Sr       3.31936926       0.23889276       8.20033656
O        1.86222960       3.64495632       4.46869710
O        3.31844768       2.44787481       0.35105947
Mn       0.40971117       4.88599813       5.79867581
O        3.31432121       1.23040263       5.86703144
O        3.30095229       6.24364654       0.52697094
O        1.86746070       4.49985941       7.26894761
Mn       3.30580633       3.29926796       5.95832902
Mn       0.41635923       3.86534880       3.03185873
O        0.40396039       5.78948102       2.56665698
Sr       3.31826326       2.04271434       2.73820802
O        4.72754237       3.63212857       4.44275493
Ba       3.29699116       5.56180964       3.11155112
Ba       0.42437756       2.65886929      -0.31430443
18
Lattice="4.9784111976623535 0.0 -0.0019379067234694958 -2.490170969000105 4.314974008983009 0.00028128904523327947 0.0 0.0 8.94139289855957" Properties=species:S:1:pos:R:3 pbc="T T T"
Sn      -1.19770147       4.29309156       3.04922186
Cr       3.78303599       1.41660815       5.28191985
O        0.55007179       4.31439661       8.71365460
Ge       3.78365784       1.41774468       0.81238041
Cr       1.29219220       2.85563397       0.81319804
O        0.43640409       1.50252343       4.24344517
O        2.15124577       1.50323264       6.32558496
O        2.88959164       2.78852370       4.24396183
Ge       1.29353529       2.85534694       5.28521339
Sn      -1.19429451       4.29250619       7.52161425
O        2.03518726       4.31337273       1.85236233
O        2.92814716       2.76946600       8.71280258
O        0.40063398       1.48200539       8.71762484
O        2.03502301       4.27296470       6.32561704
O        0.55122866       4.27109208       4.24289213
O        2.18417223       1.48303184       1.85409561
O       -0.30251789       2.78792676       6.32580125
O       -0.33976897       2.76926693       1.85616073
12
Lattice="7.651016712188721 0.0 -1.182267427444458 -4.093784735781213 6.462072387704149 -1.1791987419128418 0.0 0.0 8.508025169372559" Properties=species:S:1:pos:R:3 pbc="T T T"
Pr       0.14804472       6.30921979       4.19909531
Dy       4.06124226       4.15905480       4.19952300
Te      -2.73780351       5.82947612       2.88612869
In       2.07903904       5.24944085      -0.05458654
In       2.31704488       0.90765103       1.12636495
Te       1.28853548       3.61465310       2.88437976
In      -1.62942479       3.07829625       1.12979992
Te      -0.80795082       4.56643860       6.71376399
Te       7.13063571       0.32732677       6.69450155
Te       3.10651671       2.54243762       6.69583307
Dy       0.33418672       1.99831344       5.38040902
Te       5.20182020       1.58885657       2.86979538
14
Lattice="7.296348571777344 0.0 0.0026699441950768232 -2.255592823397194 7.151471776688669 -4.232336044311523 0.0 0.0 8.510625839233398" Properties=species:S:1:pos:R:3 pbc="T T T"
Se       0.06574559       4.15501640       2.19063169
Sm       1.27922018       5.83365157       0.06938623
Pb       6.05807626       2.25858491       0.05866346
Se       0.06493377       4.15399977      -2.06535768
Sm       4.92723365       5.83188770      -2.05829637
Sm       4.92724011       5.83515030       2.19488748
Se       1.12714452       0.30261908       4.30321689
Pb       6.05670891       2.25836304       4.31575212
Se       1.12495524       0.30331026       0.05063712
Se       4.75259375       0.36711214       6.43671900
Se       3.68885507       4.21763115       0.06128013
Sm       1.28002841       5.83316009       4.32474727
Se       3.68729612       4.21695638       4.32165383
Se       4.75659099       0.36527514       2.17933951
14
Lattice="5.283228874206543 0.0 -1.6807222366333008 -2.856751241467919 6.331953914320618 -2.444018840789795 0.0 0.0 8.346197128295898" Properties=species:S:1:pos:R:3 pbc="T T T"
Ce       4.11156231       2.34329210      -2.01678229
Rh       1.30989402       2.94787401       2.27161051
Rh       3.13183510       0.17357535       4.66200531
P       -0.16863383       1.10319016       1.97256972
P       -0.79456148       6.15306956       4.42871436
Ce       0.62721951       1.30229645       4.82971951
Ce       2.58710926       0.42823108       1.35395058
Ce       1.97802297       5.02365328       4.26208609
Rh       0.50014371       4.63736114       0.20164423
Ce      -1.45567718       3.90416451       2.73978587
Rh      -0.43188034       4.07610030       5.64997892
P        3.19432085       2.36410686       3.57269344
Rh      -2.32537513       5.27270379       0.46572887
P        1.52469720       3.41650881      -1.45680455
10
Lattice="4.84277868270874 0.0 0.019871285185217857 -2.3855477043624678 9.093162085129807 0.3047237992286682 0.0 0.0 10.901552200317383" Properties=species:S:1:pos:R:3 pbc="T T T"
In      -0.40524357       5.23758959       3.10135062
Sr       4.41673742       1.17423408       0.62374748
I        2.00002254       2.05803380       2.78615736
I        2.02540399       8.03683122       6.02911076
I       -0.40994853       4.29054925      10.70588499
I        1.99488854       0.30181994       9.34420148
I        2.01920012       7.14972791       1.74295759
In       2.01730588       6.20449566       9.35323572
I       -0.41770340       3.39518214       6.40303326
Sr       1.99833432       1.16925153       6.06697009
7
Lattice="4.3493194580078125 0.0 -0.004138174466788769 -2.173773018045893 4.7673977129941765 -1.9835612773895264 0.0 0.0 7.451135158538818" Properties=species:S:1:pos:R:3 pbc="T T T"
Sm       3.22179802       2.17937941       0.81633769
Li       3.21920617       0.09208193       3.30562696
Li       1.04876600       2.16303799       3.38537179
Li       1.04634706       3.51168638      -1.37051958
Au       1.04639194       0.16969588       1.50438468
Au       3.22070331       2.08595743       5.18626174
Sm       1.04428640       0.07955015       5.87379007
4
Lattice="3.9037554264068604 0.0 0.007367479614913464 0.0006195214453750935 5.064899406691189 0.0021015475504100323 0.0 0.0 5.426436901092529" Properties=species:S:1:pos:R:3 pbc="T T T"
Li       0.89574134       1.46698815       1.03455862
La       2.84538346       1.46332470       3.56250392
La       2.84607577       3.99788010       0.54007438
Au       0.89543031       3.99712386       3.06236788
12
Lattice="4.800846099853516 0.0 0.005122498609125614 -0.000628902250713095 7.748200867878882 -2.3388428688049316 0.0 0.0 9.739116668701172" Properties=species:S:1:pos:R:3 pbc="T T T"
Sn       1.95927010       2.34639145      -0.01408389
Sn       4.36459639       1.89144878       3.28680294
Sn       1.96122458       5.76541621       2.11646934
Sn       4.36695722       7.46794701       3.21014376
Sn       4.35631228       0.63986652       8.59442380
Sn       1.95919181       4.50434891       7.42514913
Sn       4.36869810       5.31119839       5.50952606
Sn       1.96796030       3.60116310       4.37536199
Sn       4.36199931       6.23082507      -1.17950112
Sn       1.96352125       0.18979533       2.26530084
Sn       1.96707916       1.43035283       6.65868264
Sn       4.36459713       4.04703729       1.04978118
