16
Lattice="6.456854343414307 0.0 -0.21990565955638885 -0.7912563073019153 7.794440878440181 0.30344900488853455 0.0 0.0 9.686065673828125" Properties=species:S:1:pos:R:3 pbc="T T T"
Nd       3.73099666       1.07941407       5.38777383
Nd       5.31190774       3.47672792       7.59225692
Nd      -0.21820980       7.20393677       3.73443680
Nd       5.26108853       3.91066645       3.53230130
Nd       2.90068780       6.85599661       2.93579276
Nd       5.19238587       1.85208597       0.83054980
Te       1.86306110       1.02502419       0.84431841
Nd       0.25745968       7.15811430       8.06840933
Si       3.96976157       0.63382113       8.22238791
Nd       3.79642423       5.77789162       0.09362787
Si       0.53201560       5.16264001       5.84735471
Nd       1.95085651       3.18980262       3.24139929
Nd       2.04284169       3.13087560       8.07708088
Te       0.51114612       4.91206848       0.85778216
Nd       3.47448315       5.50053631       5.92540741
Te       0.48373426       1.65121306       5.61787982
18
Lattice="6.925523281097412 0.0 -1.2744643688201904 -2.644226556995193 9.00790290124649 -2.1860406398773193 0.0 0.0 10.747117042541504" Properties=species:S:1:pos:R:3 pbc="T T T"
Li       4.35742127       8.35543513      -2.05627724
Br       3.36930853       6.24347983       7.56926593
Tl       0.29757677       7.09626603       7.24248722
Br       4.74309561       5.02802618       1.28501279
Li      -0.02894003       4.43766392       4.27126644
Re       4.10190666       2.54343887       1.39886686
Br       2.96235548       3.12024542       3.55608060
Ag       3.85246173       6.18585781       4.77929055
Tl      -1.15395529       4.33838202      -0.56104346
Br      -0.56387750       1.93722385       3.68884629
Br       0.58330987       0.13033195       7.71506245
Br       1.91565986       2.75595783       0.07906177
Br      -0.28474963       7.41625696      -0.31843841
H        1.14884101       1.14364881       8.79944079
Br       1.30560511       6.61767534       4.01086966
Tl       4.62917813       0.80165371       4.85051627
Br       4.81024728       0.88473184      -0.46468164
Br      -0.76359784       4.11992695       6.82899814
18
Lattice="9.163521766662598 0.0 1.7203725576400757 2.3686342776226748 8.970619898245673 -1.2265934944152832 0.0 0.0 13.182167053222656" Properties=species:S:1:pos:R:3 pbc="T T T"
I        7.27718359       0.63102341       7.29969838
I        4.03141280       7.51818151      10.85848653
I        6.82551403       8.83895929       3.04899506
Al       5.85498254       2.29524982       9.01193755
I        2.99901857       5.72707757       7.80973558
I        8.56358508       3.75123668       5.45297943
Cr       5.80807879       5.88956149      11.85674389
I        6.08668981       0.75700207      11.01835345
I        4.76846833       5.15104414       0.93520595
I        1.88068058       1.75158923       7.87076685
Cr       6.62742097       1.91890997       4.92313018
Al       3.83303015       3.32415042       7.56348696
I        7.33962035       1.60398161       2.09177624
I        4.52997133       3.68794215       4.91182014
I       10.46422756       6.99764897       2.99142318
I        8.38094078       6.60579026      12.69013449
I        7.04873048       4.60292745       9.66632512
Al       8.82512915       8.16777874       1.60121296
12
Lattice="6.2815093994140625 0.0 -0.17507417500019073 -0.15088581316456853 6.236316485189417 0.18250417709350586 0.0 0.0 6.188928127288818" Properties=species:S:1:pos:R:3 pbc="T T T"
Co       2.62865468       3.58272271       2.82117128
Ca       3.10790152       0.92435679       4.23196914
Co       5.68184949       5.59389606       3.88517270
Co       4.73260175       2.54301033       5.82118709
As       0.65238188       4.54454756       2.46598274
Ca       1.07850095       3.97220218       5.55911936
As       3.66677008       2.02861972       1.53041936
Ca       0.60878215       1.42127789       1.76968047
Ca       4.22476481       5.22647629       1.24003319
As       3.90942863       4.30955071       4.58677609
As      -0.01211053       1.28882822       4.89299111
Co       5.20304686       3.02406196       3.24098252
12
Lattice="1.9714751243591309 0.0 362.5815124511719 37.01507594709915 3.5733818833193767 384.9432067871094 0.0 0.0 398.7351379394531" Properties=species:S:1:pos:R:3 pbc="T T T"
Rb      37.48609904       3.46700672     732.14317727
Rb      11.20770975       1.03270525     536.07386046
Rb      26.44022605       2.53715005     522.76773643
Rb      25.46199604       2.26838735     631.10039864
Rb      17.77449363       1.57327672     701.00516876
Rb      21.74368757       1.92871789     883.12120908
Rb      23.55081341       2.13043299     726.86541466
Pt       9.05027050       0.84634962     481.16305404
Cs      21.08591365       1.86858779     915.57652976
F       20.07869671       1.83700433     587.51723645
Rb      15.87897146       1.44851752     348.33374403
Rb      13.94414282       1.26201770     400.76837935
12
Lattice="8.318584442138672 0.0 3.769195556640625 3.2230223801147693 7.785152553173754 2.772418737411499 0.0 0.0 9.00332260131836" Properties=species:S:1:pos:R:3 pbc="T T T"
Cs       9.16133882       6.96402419      11.79717412
Cl       5.45658029       7.20623784      11.42139535
Cl       3.05612738       5.23731564       6.01302510
Cs       2.43445167       1.34275610       2.45581742
Rb       5.41001311       5.62954873       8.50326466
Cs       5.90860727       4.16773938       4.52349791
Cl       5.23733039       2.02284030       7.30507169
Cl       7.67994236       6.61179988       6.12495483
Cl       7.45187347       1.37138903       6.16484611
K       10.64748318       6.52322281       7.05471848
Cl       2.90184602       4.41551305      10.04231288
Rb       2.12012191       2.55043525       7.47495806
6
Lattice="3.091066598892212 0.0 -0.8312995433807373 -0.27059610908095494 5.2592596088446415 -0.9707076549530029 0.0 0.0 6.179121971130371" Properties=species:S:1:pos:R:3 pbc="T T T"
Ta       1.96381829       1.18166678       1.31139049
Ta       2.26239302       4.53203754       2.44633603
S        1.19147542       5.04754618       4.62936500
Ta       0.00420869       3.73233097       0.19219732
Ta       1.13319320       1.84590175       4.37908941
S        0.56673269       2.82085035       2.28819636
4
Lattice="317.8857116699219 0.0 785.2732543945312 196.65419994566398 80.97400541139821 673.9813842773438 0.0 0.0 462.2306213378906" Properties=species:S:1:pos:R:3 pbc="T T T"
Rb     208.62549958      72.22007858     858.54468787
Ba     238.52772915      12.08107726     843.42911637
Rb     133.14498398      35.03520851     642.29563454
Mo     195.50825464      52.84478867     990.84572109
12
Lattice="4.819766998291016 0.0 -0.38977089524269104 0.5095236541715665 5.257024707196536 -1.5754425525665283 0.0 0.0 7.139631271362305" Properties=species:S:1:pos:R:3 pbc="T T T"
Dy       3.27001630       4.47563916       3.58880899
Cu       3.28366751       3.22014578       0.84750750
Cu       0.36357031       0.64865670       5.11652484
Cu       3.64048835       1.87852817       6.07168481
Cu       3.98071323       1.79504073       2.86084960
Dy       0.91724912       3.99752054      -0.98681775
Cu       1.95112303       0.40750210       2.66112002
Ni       2.04234465       2.06762133       4.37090035
Cu       1.31774297       1.46576085       0.09256511
Ni       3.30983930       0.39192045       0.81900945
Cu       1.12981561       2.70601087       2.21342905
Ni       5.16486237       4.75891604       1.15599704
8
Lattice="225.38180541992188 0.0 1258.8270263671875 -26.529176000225558 165.13182711448545 1529.2176513671875 0.0 0.0 1274.4173583984375" Properties=species:S:1:pos:R:3 pbc="T T T"
Rb     117.09123306     160.68276426    3525.36430431
Er     105.91059351     101.86273204    2832.14240094
Er      47.25491130      35.95949490    1754.68247715
Li      32.54062555     149.60557021    1981.55352535
Y      200.44723000      55.11793102    2406.65111961
C       69.88300304      14.17867989     629.88824607
Rb      71.02575000     157.97296195    3174.25812096
Rb      83.80255755      72.26007610    1392.81799036
5
Lattice="4.5548624992370605 0.0 -0.004095369949936867 -0.005777619936751757 4.556218775590584 -0.004826035350561142 0.0 0.0 4.558263778686523" Properties=species:S:1:pos:R:3 pbc="T T T"
Sc       2.01484919       3.85413044       0.01744931
Sc       4.29582351       1.57444173       0.01745402
Sc       2.01843551       1.57555572       2.29788101
C        2.01751496       1.57527831       0.02028804
Pb       4.29265919       3.85293471       2.29400524
6
Lattice="2.8802409172058105 0.0 0.5761476755142212 0.9719939080678579 4.87142428279671 0.5032244324684143 0.0 0.0 5.463293075561523" Properties=species:S:1:pos:R:3 pbc="T T T"
Rh       1.19657974       2.63350475       4.98925536
Cd       3.38663589       2.54108825       2.85173434
Cd       1.01021467       0.06583857       0.83798728
Rh       1.94196392       0.24953331       3.58607825
H        2.60931810       1.46824411       4.94135436
H        2.68326292       3.68349818       5.07851797
4
Lattice="4.771722316741943 0.0 2.7671244144439697 1.5950895842336192 4.500035352689358 2.7672934532165527 0.0 0.0 5.515933513641357" Properties=species:S:1:pos:R:3 pbc="T T T"
Tl       3.49342102       3.46952068       4.75245514
Tl       5.07790414       1.21976693       7.50721089
Hg       3.48745797       0.09261721       4.74574743
Hg       1.89931827       2.34280674       7.50270441
7
Lattice="16.675552368164062 0.0 30.9716739654541 12.587219125082925 12.104214096921725 34.062068939208984 0.0 0.0 47.75443649291992" Properties=species:S:1:pos:R:3 pbc="T T T"
Rb      15.41583048       6.79899245      42.15484157
Rb      10.49555662       2.11712763      33.93393293
Rb      15.12928442       3.90526037      77.07863469
Ta       3.84861983       2.46994358       9.86451534
K       13.25647644       8.98406608      68.65096504
Rb      16.22572321       0.97065284      38.73621497
Rb      11.25444091       2.31268425      49.51538601
6
Lattice="4.151159763336182 0.0 1.6238590478897095 1.8114817320159913 5.624229956515459 1.4770891666412354 0.0 0.0 6.100446701049805" Properties=species:S:1:pos:R:3 pbc="T T T"
Pd       3.56479556       0.95172189       4.24173633
La       2.54520670       5.57317037       6.82541790
Ag       1.95082412       0.00487925       2.24888084
La       1.47536509       3.16348453       3.46133586
Pd       4.35384825       3.41004972       2.22281393
Ag       2.68280152       2.27806942       6.47833367
16
Lattice="7.587084770202637 0.0 3.9335639476776123 2.8168541394868485 7.045090858292464 3.9337618350982666 0.0 0.0 9.366137504577637" Properties=species:S:1:pos:R:3 pbc="T T T"
La      10.23800454       6.95440491      16.16010398
La       5.38350278       3.66433818       6.87018709
La       6.45915829       6.78613115      14.16552346
La       5.14686465       3.50564490      12.33649663
La       0.06883338       0.06657563       2.82591076
La       1.57485024       3.83134336       4.93224468
Ru       6.40047810       1.78623172       4.86561626
La       4.12673671       0.06980205       4.93423631
Ru       7.81035912       5.30906794       6.83445942
Ru       4.01638613       5.30862493       4.86692539
La       8.67958002       3.50444918      14.16589771
Br       4.01642745       5.30809037       9.54865449
Ag       2.60721016       1.78580151       2.89931228
Br       2.60884057       1.78566189       7.58100977
Br       7.80992855       5.30815168      11.51652800
Br       6.39923263       1.78695209       9.54837552
10
Lattice="129.54193115234375 0.0 973.9661254882812 109.9668374518478 85.09497123900563 972.6694946289062 0.0 0.0 1008.5474243164062" Properties=species:S:1:pos:R:3 pbc="T T T"
Ge     136.54507329      59.96618726    1920.30291333
Rb      53.58498220      32.54263037     831.88631117
Rb      51.75181519      39.65073834     500.51679726
Li     191.24711274      68.89641342    1651.92529259
Rb     203.77176762      77.62344796    2496.77908690
Ag     106.65935828      78.00353259    1355.42668645
Ag      18.94184011       2.61260423     181.19709480
Ba      66.68908666      26.16029298     764.32999856
Ba     125.91837360      42.45794355    1871.96531082
Hf     124.55331084      37.88714912    1055.14729811
8
Lattice="4.836297988891602 0.0 0.0011222957400605083 -2.4180960213550127 4.189549228182069 -0.00010919859778368846 0.0 0.0 9.202669143676758" Properties=species:S:1:pos:R:3 pbc="T T T"
Ag       1.06540763       3.74377190       8.25175170
Ca      -1.35227674       2.34749605       6.74299337
Ag      -1.35311000       2.34645248       0.64141092
Ca       1.06546989       3.74368649       2.14954760
Ag       1.06682834       3.74353342       5.24141541
Cd       1.06557824       0.95065365       4.44685314
Cd       1.06547378       0.95076122       9.04825078
Ag      -1.35393112       2.34836831       3.65011190
12
Lattice="5.165506362915039 0.0 1.552805781364441 2.347656603372059 4.600686823009616 1.5522462129592896 0.0 0.0 9.369142532348633" Properties=species:S:1:pos:R:3 pbc="T T T"
Cu       6.09626982       3.34572984       5.58150172
Sr       2.30239614       4.18892695       8.82934629
Cu       1.59714348       2.18738878       6.45308803
Cu       4.20114382       2.18734161       7.23906143
Cd       4.69965836       2.49313650      10.22602446
Cu       1.64918269       2.18103477       1.63666045
Cu       5.38175394       4.51948357       3.18748492
Sr       0.91284447       0.17453547       4.09016944
Cu       2.84458460       4.51910706       2.42181309
Sr       3.78848108       1.93474969       3.88449453
Cu       2.32698865       1.03994935       8.75207594
Cu       5.36553340       4.46864741       8.00659877
4
Lattice="4.581081867218018 0.0 2.6521949768066406 1.5309078387228676 4.31860845264256 2.651930093765259 0.0 0.0 5.2932820320129395" Properties=species:S:1:pos:R:3 pbc="T T T"
Er       2.73337278       1.03267418       3.49309296
Ho       1.20776784       3.19189243       6.13921479
Mg       2.73596578       4.27204881       3.49545737
In       4.26082993       2.11228729       6.14172856
8
Lattice="4.993782043457031 0.0 1.4789516925811768 2.2805318971954582 4.441217680965061 1.4783425331115723 0.0 0.0 9.19505786895752" Properties=species:S:1:pos:R:3 pbc="T T T"
Dy       4.21384026       0.49426884      10.19801276
Dy       2.91845482       2.75260677       5.40084373
Li       1.06998308       1.62346772       2.46242044
In       1.97032808       2.17358792       8.61270650
In       5.16548912       1.07532112       6.98848285
In       5.62380053       4.40349098       5.43560876
In       3.79025564       3.28477888       2.44655751
Ho       4.70646878       3.84400535       8.53796102
9
Lattice="3.8409366607666016 0.0 0.000685729319229722 -0.0023533921738280996 7.526332964123316 -4.3712053298950195 0.0 0.0 8.704595565795898" Properties=species:S:1:pos:R:3 pbc="T T T"
Er       1.80096971       1.00680320       1.17443405
Er       1.79980609       4.63223164       5.48890173
Er       3.72157890       1.94595349       4.15210013
Er       3.72240411       3.50508459      -0.47996497
Er       1.79961216       6.54214963       0.18504615
Sb       1.80145419       1.54917388       6.64119027
Er       3.71955972       6.72462620       3.18056059
Ag       3.71972529       6.57289563      -2.07613640
Er       1.80079742       4.05374909       2.29038735
10
Lattice="4.88950252532959 0.0 -0.0038827392272651196 -2.4559385827883493 5.850662374375432 0.5952575206756592 0.0 0.0 10.424605369567871" Properties=species:S:1:pos:R:3 pbc="T T T"
Tl      -0.00176210       4.31928542       0.49242269
Tb       2.43992454       5.51422032       9.20092461
Y        2.44212845       1.06589635       6.41912559
Tb       2.43864163       4.62244885       5.74758916
Y        2.44685931       1.93991598       9.85332542
Tb      -0.00440615       3.34802451       7.75646939
Y       -0.00693916       5.75950314       3.59916856
Tl       0.00044461       1.03672545       1.37239784
Y        2.43791029       3.34924993       2.48849483
Tl      -0.00244511       2.26640363       4.52921882
9
Lattice="19.120304107666016 0.0 35.197113037109375 10.034731671074493 13.742121750856647 36.04694747924805 0.0 0.0 43.17026901245117" Properties=species:S:1:pos:R:3 pbc="T T T"
Re       3.54639684       3.31458113      47.36706614
Zn      26.06027670      10.67424096      62.16489589
Sc       1.87969471       1.72291630      28.25247165
Rb      18.73577469      12.52777352      74.22026108
Zn      11.80263721       5.25468110      70.05693984
Li       8.26357183       9.41076346      58.56469613
Rb      13.87608270       6.75062043      45.21363479
Rb      21.92160970      13.38553561      97.24243582
Ge      17.45621993      11.16565249      62.33842660
10
Lattice="4.29080867767334 0.0 -0.33996614813804626 0.6772445097625023 7.309929791767396 -3.7749836444854736 0.0 0.0 10.895581245422363" Properties=species:S:1:pos:R:3 pbc="T T T"
H        2.80557946       3.10339385       4.46760562
I        3.91777878       4.96117463       2.71779484
Br       2.10085199       2.48423221       5.59043817
H        1.26260430       0.69476727      10.11589289
S        3.23651530       4.61486871      -1.35947194
H        3.85462049       3.51373893      -1.87995510
Se       4.70513850       6.20464447      -1.87942937
H        3.15132194       6.03331015       3.71181482
Br       0.72976467       0.90302155       8.74545358
Br       1.84891469       0.59899244       1.68457768
4
Lattice="3.7651748657226562 0.0 -1.3880120515823364 -0.0024649518429669718 4.21056627601146 -0.0009960304014384747 0.0 0.0 5.810678958892822" Properties=species:S:1:pos:R:3 pbc="T T T"
Pr       1.07168903       0.14795146       3.18191857
Nd       0.00461519       2.25426253       0.28836966
Ir       2.69615595       2.25441889       1.78149547
Ni       2.13706065       0.15049497       0.26905996
4
Lattice="3.8418052196502686 0.0 -2.2023496627807617 -2.5545416784192696 3.6177627157449543 -0.022297251969575882 0.0 0.0 4.429387092590332" Properties=species:S:1:pos:R:3 pbc="T T T"
Co       1.56055729       3.02643767       1.52500283
Rh       1.55566477       0.31336811       1.53375526
Rh       2.83949581       1.21636977      -0.67954961
Lu       0.27945918       2.12169186      -0.69265347
12
Lattice="5.28354549407959 0.0 -0.0007283348822966218 -2.6421003706161623 4.5772254386443745 -0.0020767978858202696 0.0 0.0 8.669544219970703" Properties=species:S:1:pos:R:3 pbc="T T T"
Ir       3.42736105       2.50508184       1.18821578
Tb       4.74877262       0.21653211       7.68914323
Ir       2.10665852       0.21597203       1.18987814
Ir      -0.53338145       3.26849112       3.35715787
Ir      -0.53372179       3.26721621       7.69068406
Ir       2.10582050       1.74170298       7.69382961
Ir       3.42856061       2.50478773       5.52386789
Ir       0.78566986       2.50521580       1.18920047
Tb       4.75137035       0.21796876       3.36289319
Ir       0.78741722       2.50509821       5.52269811
Ir       2.10729755       0.21593976       5.52493116
Ir       2.10710342       1.74286630       3.35528446
4
Lattice="3.7632226943969727 0.0 0.8341396450996399 1.777078415710037 3.3133817438003352 0.8343383073806763 0.0 0.0 8.807299613952637" Properties=species:S:1:pos:R:3 pbc="T T T"
V        4.08684174       2.20448830       7.94860675
Te       0.73615898       0.19806787       5.30526446
Te       1.89785313       0.89430502       8.91354367
Ag       1.31589841       0.54435700       2.70556741
16
Lattice="6.248801231384277 0.0 -2.6555373668670654 -1.7986053092012366 6.557967757723941 -2.721768617630005 0.0 0.0 7.691070556640625" Properties=species:S:1:pos:R:3 pbc="T T T"
S       -0.66261894       2.84915874       0.16579388
Li       4.86226204       1.57191988       3.14006346
S        1.30674477       3.03093039      -0.65843331
Li       1.37966545       0.81669814       4.91813467
Cu       4.21958601       1.10440392      -1.68406799
S        3.98185078       6.28593697      -3.33913300
Li       2.52916272       4.92144537       2.65351782
Li       1.90509615       0.52684933       1.97864114
S        4.46634791       3.47046962       1.62147906
Cu       2.23685951       5.04162307      -0.18689411
S        3.79639078       6.23065406      -1.24046482
S        2.19231301       1.17263149      -0.46001960
S        1.41606747       2.83773707       3.31899694
S        3.34589157       0.01692064       3.98712564
S       -0.13990034       4.14533589       3.19408616
Cu       4.79547673       4.30554845      -3.99213871
14
Lattice="6.23701286315918 0.0 1.4572871923446655 1.6013165286524038 4.438573860219123 2.7661867141723633 0.0 0.0 7.0132341384887695" Properties=species:S:1:pos:R:3 pbc="T T T"
Y        2.27511113       3.72929402       9.47540251
O        2.46637092       1.56942295       2.55616982
O        4.17946786       0.67254283       4.84401424
Y        5.80275120       2.90537230       8.78388217
O        3.02621850       3.34634397       4.76395811
Y        0.40441300       0.79069264       3.06515911
W        2.96289013       1.79144627       5.95300331
O        6.35135342       2.90830732       3.98325074
O        2.90874216       0.15036482       7.07975615
O        1.79536585       3.06719865       7.08634443
O        4.52603938       2.58507791       6.84944866
O        1.28597453       1.11673406       5.24184785
O        5.72984997       0.75557493       2.35103005
Y        5.23376738       4.27670994       5.25557111
8
Lattice="5.974785327911377 0.0 -1.7315514087677002 -2.0620506658484747 5.835441031548719 -1.7548810243606567 0.0 0.0 6.094269752502441" Properties=species:S:1:pos:R:3 pbc="T T T"
Pr       2.22642827       1.98727008       0.86102273
Hg       1.58515296       2.42160416       3.89298070
Pr       3.50300689       5.59073966      -0.59819771
Al      -0.73168565       2.89681274       1.99677821
Al       4.10006651       4.40241262       2.31344546
Pr       1.02831663       5.40165773       2.68568803
Hg       0.33752727       4.55127863      -0.29766405
Al       4.95576195       1.97224516       3.74646553
10
Lattice="4.745664596557617 0.0 -0.00931491982191801 -2.392330596770507 6.690608639009228 -1.3146611452102661 0.0 0.0 10.469112396240234" Properties=species:S:1:pos:R:3 pbc="T T T"
In       0.58968663       2.33963947       8.88753965
In       2.95981166       4.54292380      -0.42065508
Rb       2.97594514       0.90128301       1.38094771
In      -1.78809930       5.38018903       5.82233091
Sn       2.96510279       2.62510449       7.18858631
Sn      -1.78704380       5.19252380       2.55947194
Rb       0.59011063       2.66516348       4.41066077
Sb       0.58102622       6.63614451       4.32870042
As      -1.78552871       6.44786474       8.24956881
As       0.59370918       3.79087071       0.92072074
10
Lattice="6.534083843231201 0.0 -2.1642868518829346 -1.6381971106168869 6.0108018807828785 -2.624448299407959 0.0 0.0 7.985948085784912" Properties=species:S:1:pos:R:3 pbc="T T T"
Y        2.64394255       3.57607117       0.19290344
Y        2.95288109       0.55768489       3.72090292
Y        2.62154119       4.36868356       3.56078108
I        0.10373257       0.34715960       2.18120412
Y        5.25393932       2.38104388       1.94092926
Al      -0.18357227       4.10166007       1.86059186
I        1.25458108       2.27434966       5.71144662
Y        5.35257798       2.11211510      -2.33084263
Al       4.84920428       5.53097216       1.54088354
I        3.08912455       0.33651770       0.43306192
14
Lattice="5.949233055114746 0.0 -0.01259999442845583 -2.987379726579576 5.142015036266653 -0.01892273873090744 0.0 0.0 8.16736125946045" Properties=species:S:1:pos:R:3 pbc="T T T"
O        1.45463805       3.25803741       3.17265801
Se      -1.52469918       4.97522060       4.55816781
Se      -1.53187076       4.98308907       0.78194983
O        0.07737538       0.63602765       5.23594857
Tl       4.44097656       1.55195399       2.83517633
O        1.45219939       3.26377793       0.63820251
Hg       4.44087596       1.54951603       6.91556076
O        2.84642094       0.64385271       0.29421953
Tl       1.45179340       3.25769506       5.84402710
O        2.84838315       0.63312046       5.23851934
O        1.44970788       3.26837831       1.85731143
O       -1.51330897       3.38137216       5.23118954
O        0.07390886       0.64104390       0.27639193
O       -1.52741183       3.38531267       0.28180951
8
Lattice="5.294323921203613 0.0 853.1943359375 -4.33115559381702 80.56843667121801 837.3485107421875 0.0 0.0 853.7638549804688" Properties=species:S:1:pos:R:3 pbc="T T T"
Sb       1.52631406      34.17285670    1570.52562199
Sb       1.77143668      64.78063599    1584.29981453
K        1.68369900      20.94225817    1261.86469241
Cs      -3.11423060      62.79787215    1076.69425559
Sr       1.35372731      36.49480368    1511.97861580
Cs       1.68234748      51.16752120    1570.95089651
Os       0.55255386      74.12125828    2332.56940308
Cs       3.50226699      27.96769266    1394.37827741
10
Lattice="23.113222122192383 0.0 331.3224792480469 -10.259275089858306 10.33990338798236 333.9519348144531 0.0 0.0 379.216552734375" Properties=species:S:1:pos:R:3 pbc="T T T"
Ga      -0.61035901       4.43498952     263.53964225
Ta       5.45004422       0.23119183     181.72992213
P       -1.89640677       8.09413019     423.21848153
Rb      -3.06211829       8.38129871     455.44522316
Hg       4.59047525       3.37053214     541.28039549
Rb       2.24186704       3.73195263     514.31460110
Rb       5.35197539       6.21362383     429.71536759
Rb      -5.65446927       8.30752685     560.47816636
Rb      15.59031208       6.40075106     553.34835054
Cs      19.35587621       3.47332802     444.66669856
5
Lattice="3.2994987964630127 0.0 -1.2248209714889526 -0.45403088295710586 3.268815602645493 -1.2254692316055298 0.0 0.0 5.043207168579102" Properties=species:S:1:pos:R:3 pbc="T T T"
Lu       0.19463607       2.67620569       0.63468439
B        2.37725746       1.39372392       1.45503443
Ni       1.13421498       1.86057217       3.15483809
Ni       3.01026525       0.22532394       3.15653318
B        1.76407503       0.69032237      -0.18562224
8
Lattice="5.716626167297363 0.0 -2.7457730770111084 -3.0346237701222383 5.002987461811158 -1.854318618774414 0.0 0.0 6.493166923522949" Properties=species:S:1:pos:R:3 pbc="T T T"
Mg       3.33273114       1.85716812       1.24407541
Ca      -0.72932466       4.45401350       1.81771640
Ga       1.59848905       1.87870615      -1.02665098
Mg       4.54966001       1.73658699      -2.31461545
Mg      -0.75554660       4.19493830      -1.48905844
Mg       2.09282274       4.51117928       0.32509048
Mg       2.16216268       4.08324880      -2.85792184
Ga       0.47983505       1.77661411       2.87353284
13
Lattice="4.881789684295654 0.0 116.45405578613281 7.006363828755977 8.141662634095074 116.57695007324219 0.0 0.0 135.4917755126953" Properties=species:S:1:pos:R:3 pbc="T T T"
Cl       8.01999967       4.64770851     222.49080681
Rb       7.97612743       6.11278031     180.61025049
Rb       5.74478296       5.64983155     174.60279409
I        4.83383834       2.37573394     149.64333299
Rb       7.02408552       7.67734926     124.26710946
Ba       3.14885521       3.25660032      75.95030886
Rb       2.77690356       1.99545411     126.46537722
Rb       6.09796527       4.35481528     234.40069354
I        6.69721834       7.69675710     164.81694816
Rb       6.38103620       2.46512559     141.20478065
I        3.15543807       1.16834497      80.46898074
Rb       7.27311865       6.44696950     200.04452094
I        6.62779809       6.71939018     151.88135913
10
Lattice="5.679563999176025 0.0 -0.039054855704307556 -0.08089768550726198 6.761403135405681 -1.6426724195480347 0.0 0.0 7.227717876434326" Properties=species:S:1:pos:R:3 pbc="T T T"
La       3.61733361       5.06498663       5.17504650
La       3.64306657       4.69299818       1.52465199
La       0.82940796       3.51411837      -0.61599373
H        2.21354058       6.60878850       1.51313532
La       3.68755830       1.64182332       3.36322535
La       0.82287346       6.71095986       3.40793981
Pb       3.68772855       1.70257310      -0.39209935
H        1.35227062       5.53722650       5.43223273
La       0.87754135       0.40824808       1.37958516
Pb       0.83018182       3.36204599       3.16437877
4
Lattice="3.427086353302002 0.0 -1.018518328666687 -0.5928185469436827 4.513800812345709 -1.9877935647964478 0.0 0.0 6.206445693969727" Properties=species:S:1:pos:R:3 pbc="T T T"
La       2.05131134       3.97163351       0.34965166
Ni      -0.37369877       2.84983514       4.72329212
Al       0.90769423       2.14977818       2.76434964
La       1.76764275       0.79529573      -0.56877463
4
Lattice="3.0006344318389893 0.0 -0.9420468807220459 -0.6001766325405241 3.996371190633703 -1.906069040298462 0.0 0.0 5.240036964416504" Properties=species:S:1:pos:R:3 pbc="T T T"
Mo       0.35890587       2.82165423       0.58827241
Mo       1.26124119       1.82708680       3.45803691
Mo       2.16365153       0.83231100       1.08889406
Re      -0.53983547       3.82542866       2.97548281
4
Lattice="3.5147757530212402 0.0 -0.000844426394905895 -0.00029011863435293093 3.5135640978245477 -0.0005044483696110547 0.0 0.0 8.646554946899414" Properties=species:S:1:pos:R:3 pbc="T T T"
Tb       0.32181260       0.36130074       4.95872090
Nd       2.08027134       2.11803805       2.29844763
Ho       0.32343693       0.36163624       8.31678538
Cu       2.07757028       2.11813334       6.67511342
19
Lattice="7.428816318511963 0.0 -1.8380229473114014 -1.9784559666001666 7.9713619011505426 -2.2441771030426025 0.0 0.0 9.837667465209961" Properties=species:S:1:pos:R:3 pbc="T T T"
Na       2.21801907       6.69255944      -0.09616889
Na       5.55903577       6.34003231       0.09276865
Cl       2.96049160       0.67803235       0.34901878
Na       1.30838551       3.10666087       0.69725653
Hg       1.81648268       3.15411093       4.93244553
Na       5.16639660       2.44684258       1.15941433
Hg       5.65970549       4.35315329       6.52949893
Cl       5.95849876       0.51771683       2.89087557
Tl      -0.03855792       0.46218696       7.33533947
Cl       2.71767460       6.63413458       3.92538165
Cl       3.85689827       6.24536927      -2.36965197
Hg       2.28797208       7.84591850       5.91985713
Cl       1.95906402       0.45207762       4.86221185
Cl       4.47804453       3.21540606       4.75742245
Cl       5.99856243       2.03013463      -1.60103498
Cl      -0.15685249       5.41212680       0.03168874
Cl       0.16847896       3.86700792       3.24513102
Cl       3.57413116       4.57442428       0.96779079
Cl       1.11167853       3.27135667       7.36381383
4
Lattice="4.2178826332092285 0.0 -1.7403022050857544 -0.7019541722699785 4.154503882725485 -1.7341421842575073 0.0 0.0 5.855949401855469" Properties=species:S:1:pos:R:3 pbc="T T T"
Sn      -0.39570333       3.20733302       0.68019577
Ga       3.29020276       0.09022410       3.60305244
Sn       2.05888766       1.12927159       0.67246189
Hg       0.82939013       2.16758233       3.60677320
6
Lattice="3.886392831802368 0.0 -1.063116192817688 -0.3185869039161921 6.113737486908445 -1.2266991138458252 0.0 0.0 7.479181289672852" Properties=species:S:1:pos:R:3 pbc="T T T"
La       3.42733564       0.10676173      -0.58629909
Fe       2.06430188       0.66343857       2.00502761
La       2.54836943       2.48499494       3.68905503
Fe       0.02263554       1.93477750       2.15507264
La       1.53359530       3.20383269       0.09121519
La       0.23547520       5.48951350       2.84787032
3
Lattice="5.078603267669678 0.0 2.9261815547943115 1.6880663214112694 4.789500092815575 2.9307141304016113 0.0 0.0 5.8596906661987305" Properties=species:S:1:pos:R:3 pbc="T T T"
Sn       4.93830353       0.39057282       8.07013678
Ba       1.54972537       1.58867760       2.21195119
Eu       4.93492651       3.98398375       8.07009413
3
Lattice="80.27515411376953 0.0 54.18135070800781 -20.96068576637174 17.952187043190317 69.7490005493164 0.0 0.0 77.23431396484375" Properties=species:S:1:pos:R:3 pbc="T T T"
Cd       4.79413683       5.85715118      62.97978645
Er      61.53230598       6.41342533     117.91042072
Hf      48.61153999       6.55806554     102.71380917
12
Lattice="5.034358024597168 0.0 0.08214853703975677 0.34943726077135984 5.075000621803195 0.08439688384532928 0.0 0.0 6.7923808097839355" Properties=species:S:1:pos:R:3 pbc="T T T"
Zn       4.17242023       3.59032660       5.35469919
Na       1.45295384       1.02399985       3.65333709
F        2.82030926       5.03365761       1.95802524
F        5.16054310       4.51991033       0.50191101
Na       1.51173620       1.08419207       0.09754457
Mo       4.17218193       3.58999476       1.95710846
F        3.18767833       2.65684342       3.41225096
F        0.41495687       2.21838059       5.26955346
F        3.22729965       2.69427791       0.36653404
F        2.89608833       4.96256284       5.35424085
F        5.12110660       4.48570042       3.55093333
F        0.48969925       2.14863873       1.87575709
9
Lattice="4.980633735656738 0.0 -1.857909083366394 -1.1098465492806475 5.153797105628681 -0.8963863849639893 0.0 0.0 5.523245811462402" Properties=species:S:1:pos:R:3 pbc="T T T"
Mn       0.32909555       3.80531026       4.23807934
Nb       2.00659562       2.83175034       2.48126004
Mo       1.94703138       0.07787941       2.35318791
Mn       2.16130710       3.94068224      -0.22341801
Ta       4.27368418       1.55173958       1.44077130
Mn       3.90720581       4.40556154       0.91025804
Nb      -0.52570680       2.73993824       0.73215418
Ta       1.78229748       1.28699427      -0.39742980
Mo       4.28360282       0.07596590      -1.23982239
12
Lattice="3.8149828910827637 0.0 0.0024592913687229156 0.0015031991399194287 7.152106127127227 -2.3546316623687744 0.0 0.0 9.146613121032715" Properties=species:S:1:pos:R:3 pbc="T T T"
Rh       3.68068379       1.61152148       7.04233842
Ni       1.77070048       5.54640075       2.02701948
S        3.67737368       4.04046974      -1.22059554
K        1.77193428       4.56286475       5.25268023
S        3.67725402       2.00302775       4.72637958
Rh       1.77120764       2.96970299      -0.48682198
Rb       3.67840768       0.43907026       1.77765308
Rh       1.76831606       0.78059041       5.18677433
S        1.77009669       3.35524396       1.84092148
Ni       3.67531081       4.21692331       1.05253800
S        1.77095660       0.67767529       8.02375760
S        3.67969456       6.02426800       2.72119961
8
Lattice="3.762108087539673 0.0 0.9205060601234436 1.3964864151382972 7.541849083088236 2.4228034019470215 0.0 0.0 8.089415550231934" Properties=species:S:1:pos:R:3 pbc="T T T"
Bi       1.75273765       7.29907947       8.50051210
Bi       2.88163259       6.06878988       3.91190006
Bi       1.84494755       1.44819091       8.14509036
As       3.68138470       4.37575534       8.78277411
As       1.31652018       4.35602865       2.16960878
As       2.28570901       4.35265448       6.36898708
Br       2.98050394       0.59830431       3.52184488
Bi       0.71999165       2.63335530       4.61288389
10
Lattice="3.85506534576416 0.0 0.004142763093113899 0.005546544345927119 3.8550043735676773 0.0035085182171314955 0.0 0.0 18.96215057373047" Properties=species:S:1:pos:R:3 pbc="T T T"
Sr       3.70385330       0.14042554      18.20902090
Sr       3.70289220       0.14142857      10.39292340
Tb       3.70216270       0.13875529       6.77310106
Sr       3.70265810       0.14066331      14.30681275
Zn       1.77897541       2.06950133      16.25511220
Zn       1.77821530       2.06734603       5.23475502
Zn       1.77592891       2.06872630      12.36256802
Sr       3.70295444       0.14045029       3.15129201
Zn       1.77782479       2.06654480       8.31190667
Zn       1.78013256       2.07004199       1.17515835
8
Lattice="4.457207202911377 0.0 0.06019212305545807 -2.6238087825146006 4.701545989170872 -2.131734609603882 0.0 0.0 6.165467739105225" Properties=species:S:1:pos:R:3 pbc="T T T"
Y        0.67448532       3.12677423       2.99342439
Os       3.36791310       1.58816358       4.81213540
Os       2.25666646       3.13926286       0.37476000
B        0.31259444       0.19561269       3.63344522
Y        2.81774063       0.46326740       1.87837555
B       -1.60809739       3.68045660      -1.65192017
B        0.16991585       2.38448122       0.22834590
Os       1.16395179       0.68863416       5.49591664
16
Lattice="7.834641933441162 0.0 4.037145137786865 2.8802373270498545 7.286398321972363 4.036334991455078 0.0 0.0 9.630592346191406" Properties=species:S:1:pos:R:3 pbc="T T T"
Er       6.83881235       3.44525571       7.72793257
Sc       8.28092702       7.08872219       9.74710742
Er       2.92236921       3.44610456       5.70812266
Tl       6.83915896       3.44512130      12.54175815
Te       8.21272965       1.71516457       9.87888498
Te       9.35801117       5.22652872       7.64693592
Tl       2.92079727       3.44627654      10.52414403
Tl       4.36355681       7.08927983      12.54269391
Er       4.36129106       7.08829440       7.72732356
Te       5.46793342       5.17595455       5.57895484
Te       9.61371018       5.39942091      11.84384925
Tl       8.28074638       7.09064919      14.55975426
Te       7.88246746       1.49002929       5.57711990
Te       4.06461156       1.49119051       3.60991780
Te       5.79670277       5.40003806       9.87793696
Te       4.31886669       1.66424991       7.80860187
8
Lattice="4.2962775230407715 0.0 0.004296804312616587 0.004299673820452266 5.780179331902828 -0.007131247315555811 0.0 0.0 8.715537071228027" Properties=species:S:1:pos:R:3 pbc="T T T"
Pr       3.67465075       2.13744969       2.49693579
Al       1.52377847       0.69604679       4.75668457
Pr       3.67198603       5.03369654       7.01386478
Pr       1.52553887       5.02811282       1.66267283
Pr       1.52402480       2.14257433       7.82937237
Al       3.67180545       2.14155488       5.62960856
Al       1.52567138       3.58482541       4.75240030
Al       3.67643998       5.02816897       3.87541453
12
Lattice="6.790773868560791 0.0 -1.1549474000930786 -3.696591057585721 5.696337161989058 -1.1521326303482056 0.0 0.0 6.9051690101623535" Properties=species:S:1:pos:R:3 pbc="T T T"
Sm      -0.66419816       2.52845597       2.34214635
Sm       2.86163933       0.61406722       2.34158620
Zr       1.09800017       1.57182504       5.79368801
P       -1.63354582       4.96358414       3.57657571
Sm       2.64643700       4.42016016       1.18886409
P        0.13391666       3.87548163      -0.04558842
P        5.43098697       1.12630613       3.57576148
P        0.33439144       0.16150134       1.09402802
Tm       4.39009954       3.47257002       4.64071949
Tm       0.90289279       5.36592941       4.64146164
P        3.55457786       2.01717546      -0.04692904
P        1.86405006       2.98008545       3.59004497
16
Lattice="5.928004264831543 0.0 0.005913184490054846 3.0527193038199125 6.861697974892354 0.01521044410765171 0.0 0.0 12.173788070678711" Properties=species:S:1:pos:R:3 pbc="T T T"
Cs       1.70012382       0.56630314       8.58509112
S        7.95609977       5.18184285       9.15831010
P        1.71789926       0.56165815       4.26250549
Li       6.18710841       3.99813932      10.33407011
Rb       3.23633392       3.99240407       5.97324350
Cs       6.20246483       3.99632627       2.48594120
Li       4.68144428       0.56383371       4.31974434
S        6.48894318       1.78969180       5.43530776
S        4.42589822       5.20142525      11.52172727
S        3.51694007       6.24902171       3.11730863
S        2.97104043       1.74498766       3.10070264
Rb       4.66273124       0.57165905      12.04253142
S        2.01537576       2.79531187      11.51858990
S        4.41692999       2.80747255       9.15671975
P        3.22066613       3.99968326      10.34530611
S        5.92315470       6.19656600       5.44660506
12
Lattice="34.7057991027832 0.0 402.50140380859375 0.23436221639442295 1.6443084470729277 385.150146484375 0.0 0.0 388.197265625" Properties=species:S:1:pos:R:3 pbc="T T T"
Te      15.79648045       0.03999396     424.16927494
Rb      10.15261778       0.39351721     578.88484484
In      27.33047420       0.42498965     469.52547222
Y        5.68871729       1.57171096     503.60365549
Pb      13.32705748       0.26336178     542.88723624
Pb       9.60337363       1.19005069     619.22659571
Rb      18.00661309       1.32085135     875.85625730
Rb      34.72813074       1.10396048     667.90745198
I       33.66641687       1.03045270     862.74987356
Pb      15.63560667       0.10852189     236.84535234
Pb       0.64170899       0.10793202     324.81596064
Cs      17.08599351       0.74537658     529.17750898
12
Lattice="5.779384136199951 0.0 1.31496000289917 1.507576580292123 5.754034854101216 1.6685672998428345 0.0 0.0 6.671682834625244" Properties=species:S:1:pos:R:3 pbc="T T T"
O        5.97342201       3.28986008       7.93233108
O        0.82441898       2.80474738       2.30616451
V        5.14508119       3.20152202       4.34758436
K        2.14008813       5.32827125       5.07456799
V        1.19020576       2.04994190       7.13179552
F        2.27264156       0.87430811       1.44429271
F        2.65904618       3.11313423       6.85414573
F        4.76206356       1.70069102       5.17875774
F        5.57286251       0.88536409       2.18656419
O        5.43474613       4.40396195       5.36698966
F        1.46087301       1.18130235       5.53450432
F        3.73431894       3.59906731       3.37011477
4
Lattice="4.294618129730225 0.0 2.474196195602417 1.430425950740982 4.049615236370891 2.474151134490967 0.0 0.0 4.956813335418701" Properties=species:S:1:pos:R:3 pbc="T T T"
Er       4.76669258       1.51172397       6.64895615
Sm       3.33397428       3.53548244       4.17123686
Pt       1.90292846       2.52229392       6.64994019
Pt       3.33316905       0.49738909       4.17404617
12
Lattice="6.004725456237793 0.0 2.860158920288086 3.597134604476765 5.7565790619591235 0.17449480295181274 0.0 0.0 8.616194725036621" Properties=species:S:1:pos:R:3 pbc="T T T"
Zr       3.25477389       2.33728546       9.32228195
Zr       6.64768292       4.49507070      10.29749120
Zr       6.16947307       0.39359691      11.09196591
Se       6.70393455       3.20712126       4.04746456
Na       7.98660759       3.40435970       7.09509496
Na       5.24023018       5.48084258       5.22942845
Au       0.86800548       1.08598763       2.31796881
Se       3.90158246       4.47926356       2.22912142
Se       3.28678273       3.91267071       6.99913747
Se       6.03400875       2.08177789       8.93383790
Se       2.87642434       0.14776883       7.80550659
Se       3.63671188       0.94905061       3.08488105
8
Lattice="8.057805061340332 0.0 40.751861572265625 3.826721233543309 12.784602115156167 36.4686393737793 0.0 0.0 38.62500762939453" Properties=species:S:1:pos:R:3 pbc="T T T"
Nb       4.64541084       4.22556522      49.69828039
Br       8.87933813       4.54735440      77.28778505
Rb       8.17787198      10.68973597      88.85939825
I        9.79095135      10.98161846      84.28905960
Rb       3.26383161       8.45046138      36.56335059
Rb       5.32935939      11.78858798      67.58990296
Rb       2.16161397       1.76631822      20.52957690
Br       6.81166771       4.10322531      54.59898231
11
Lattice="6.999749660491943 0.0 -1.3022520542144775 -1.931105438934211 5.988702028852222 -3.2581753730773926 0.0 0.0 7.090707778930664" Properties=species:S:1:pos:R:3 pbc="T T T"
Na       0.99495963       1.44975696       1.09854077
Ho       4.81789167       0.45241523       2.17344825
Ho       3.54645836       4.37971232       2.48057536
Se       6.45076560       0.75150711       4.48455367
Er      -0.28252528       5.40908652       1.34751988
Se       1.38140859       5.84316170      -3.44681959
Na       0.37213728       3.38238157       4.85603751
Se       5.69354357       2.99177041       1.18997422
Se       5.05103171       4.97719661      -2.24834916
Se       1.91273044       4.08341764       0.17086829
Se       2.67106902       1.84029530       3.46439629
12
Lattice="5.201013088226318 0.0 0.010132594034075737 0.01393515105315918 7.529301622471505 0.032378602772951126 0.0 0.0 9.125564575195312" Properties=species:S:1:pos:R:3 pbc="T T T"
Hg       3.92538070       3.68363344       7.91686927
Bi       3.92370138       2.93138726       5.03675188
Bi       1.32240673       2.88176618       0.18510281
Bi       1.33329996       6.64209635       3.45392364
Na       1.33203351       6.79163164       0.32046813
Na       1.31828848       1.17604712       6.47399692
Na       1.32607919       3.02673355       3.32708939
Hg       3.93160088       7.45801495       4.84096373
Bi       3.93134579       6.69558480       7.73839531
Na       1.32533179       4.93856992       6.28251224
Na       3.92129333       1.14337516       1.58319591
Na       3.92796595       4.91799913       2.08014347
10
Lattice="6.462282657623291 0.0 0.0765443667769432 -1.4626227804523644 5.85887142654767 -0.28776562213897705 0.0 0.0 7.780032157897949" Properties=species:S:1:pos:R:3 pbc="T T T"
La       5.26412146       4.37578586       1.80291317
Pr       2.02457892       2.91238437       3.37394906
La       4.78615634       0.97659323       0.14219408
La       2.38441139       0.00362975       5.25152405
La       5.44150945       1.04405608       3.64541415
La       1.62831713       3.28187632      -0.07155243
Ru       0.26851465       2.00616409       5.75514134
La       4.87072208       4.06391332       5.91203902
Ru       1.20174888       0.51591392       0.66951477
Ru       2.98199570       0.03591433       2.53052276
18
Lattice="4.5778889656066895 0.0 0.0013668459141626954 -2.286812368559538 10.15110281304651 -0.00019520267960615456 0.0 0.0 14.180429458618164" Properties=species:S:1:pos:R:3 pbc="T T T"
Te       2.42283800       6.84556039      13.40112435
Ba       2.42198438       2.15314102       3.69773661
Ba       0.13403635       7.31969918      10.78641802
Te       2.42081800       0.56892275      13.73235875
Te      -2.15492075       9.81324915       2.90127555
Te       0.13372547       3.56967009      11.30827999
Sm       2.42264285       3.75081536      13.51560093
Zn       0.13395108       0.96384069      12.28061201
Te       0.13168581       3.74080899       1.46903187
Te       0.13385175       8.89677919       6.63479221
Te       0.13097711       2.62417362       6.31366673
Te       2.42055723       5.89896484       4.21355957
Te       2.42297263       5.73337095       8.55887630
Ba       0.13396219       7.39206109       1.77593258
Ba       2.42059231       2.08337116       8.86998530
Sm       0.13182777       5.71516732       6.42033761
Zn       2.42078122       8.49574288       5.19844491
Te      -2.15565862       9.81261143       9.97374950
5
Lattice="4.2940754890441895 0.0 -1.5669045448303223 -0.5724243562963237 4.255742596122671 -1.5652108192443848 0.0 0.0 6.68263053894043" Properties=species:S:1:pos:R:3 pbc="T T T"
K        3.74196484       3.52826578      -2.74678112
Ag       1.42514557       0.87719112       4.24963528
Ga       0.66425694       2.46424033       2.16495851
Ga       3.09896588       0.33510421       2.16141271
Ag       2.33680213       1.91985892       0.07273765
9
Lattice="3.668477773666382 0.0 0.8203750252723694 1.6813066497778795 7.729176800024282 1.2705209255218506 0.0 0.0 8.73025894165039" Properties=species:S:1:pos:R:3 pbc="T T T"
Se       3.02429028       0.05901332       3.52741277
Zr       4.02038025       2.75953282       7.75809425
Zr       1.41184123       1.88713470       2.14041819
Pd       2.72849929       2.13236683       4.90668083
Se       2.15494193       4.70235920       7.50449087
Se       0.94735296       3.72921691       4.26128649
Se       2.27598679       0.72822465       6.91338839
Se       3.58097648       0.44709003       0.99837676
Se       3.46205491       3.69841577       1.60782380
10
Lattice="8.1905517578125 0.0 4.681622505187988 2.6976461740380553 8.026738113645871 4.668885231018066 0.0 0.0 9.452665328979492" Properties=species:S:1:pos:R:3 pbc="T T T"
Cs       9.97192450       6.71202825      14.21219110
Cs       8.47620630       2.18811030       7.44575738
Cs       8.47710020       2.17000217      11.61525491
Se       6.96290474       0.76316692       4.82574266
Cs       5.40358733       6.71361473       7.41692122
O        1.49579585       0.25260872       4.84219251
Na       9.65544659       6.18084224       9.47905629
Cs       3.91771933       2.17896390       4.81508751
Cs       5.40705786       6.72145286      11.59224676
Na       4.21831226       2.41824297       9.54585548
7
Lattice="4.411596775054932 0.0 -2.014176845550537 -0.4682448670194895 5.259211927003689 -1.0258413553237915 0.0 0.0 5.860029697418213" Properties=species:S:1:pos:R:3 pbc="T T T"
Na       3.34339890       0.79642971       1.17918454
Na       2.37491754       2.88956543      -0.94473472
Zn       1.93773454       0.08907354       3.95459179
Ga       1.14197590       2.59322000       2.18826531
Zn       0.41080098       4.47961723       0.59627427
Zn       3.77905490       3.63523666       2.13730804
Au       0.17182842       1.10467851       0.07600001
8
Lattice="5.02346658706665 0.0 0.03046034462749958 -2.489700094094473 4.393533252041969 -1.833893895149231 0.0 0.0 8.353582382202148" Properties=species:S:1:pos:R:3 pbc="T T T"
Ag       1.06430203       0.69510054       0.33492430
Pr       1.07951930       3.34678462       3.09942877
Hg       1.06274375       0.88378488       5.58874290
Ag       3.58186576       1.62055117       7.69774408
Ag      -1.42579631       4.07238600       1.05733712
Ag      -1.44062145       2.61794986       5.11137702
Hg       3.58356723       1.41471534       2.44778336
Er       1.07915751       3.35151486      -1.08185829
18
Lattice="6.527544021606445 0.0 3.8767166137695312 2.2022746221269647 6.1470359201541935 3.877666711807251 0.0 0.0 7.5985026359558105" Properties=species:S:1:pos:R:3 pbc="T T T"
O        3.96414357       2.42964924       6.92960616
W        4.81290261       3.27383540       8.41851704
Tl       6.72418491       2.31980935      11.77822877
W        3.71384151       0.20324560       2.68319530
O        5.17737311       5.83351658      12.46570725
O        1.92433511       0.61359797       3.33937838
Y        3.71308115       0.20142733       6.48217238
O        5.66276396       4.12070629       9.91657619
Tl       2.90567792       4.23080193       5.06561686
W        0.44869573       0.20066379       4.54408304
O        7.70321744       5.93360531      13.49953062
O        6.30390049       2.02575165       8.27908177
O        3.32120641       4.52285217       8.56428030
O        3.93041569       2.02498534       9.62679722
O        8.09866838       5.83381995      10.80142622
O        4.44677959       0.71980802       4.37360206
O        5.69874276       4.52639628       7.21483739
O        1.52840790       0.71476646       6.03899554
5
Lattice="4.922201156616211 0.0 0.0006868949858471751 0.0002839180760791913 4.922467700399734 -0.0008610564982518554 0.0 0.0 5.143269062042236" Properties=species:S:1:pos:R:3 pbc="T T T"
Nd       2.78690853       0.87151503       2.01736140
Y        0.32715889       0.87165286       4.58591612
Bi       0.32585574       3.33282069       2.01386344
Y        2.78746296       3.33222215       4.58435844
C        2.78725708       0.87177183       4.58761963
18
Lattice="5.516215801239014 0.0 0.5761369466781616 0.8876930145873979 6.288589033667368 1.7645866870880127 0.0 0.0 11.14630126953125" Properties=species:S:1:pos:R:3 pbc="T T T"
Na       3.11680093       5.76592806       6.22809249
Na       2.86300820       2.79268700       1.25086217
Ni       3.59312455       1.52631550       6.81695372
Ni       0.44590301       2.43186394       8.19240268
Ni       5.07803492       2.69764514       4.85952295
Na       6.30566560       6.18002278       3.54631112
Cl       1.92909524       5.27042571      11.78983850
S        1.57446229       0.79307703       7.30601314
S        4.94488966       3.29948764       6.96591610
Ni       1.10244158       5.42585048       9.67166810
Cl       5.00713320       3.82153426      10.31088050
S        4.92046790       0.52345650       5.39214099
Cl       5.38750919       2.65891274       2.59801449
S        1.46627308       3.75202820       4.74690843
S        2.92475238       2.23553238       4.73056068
Cl       2.18028848       3.85079605       8.43786028
Cl       2.65197743       0.11328075       1.83787169
S        4.40791179       0.87038441       8.83559296
10
Lattice="52.97707748413086 0.0 135.13177490234375 -0.4036430667917447 4.829038381601453 133.65695190429688 0.0 0.0 167.4033966064453" Properties=species:S:1:pos:R:3 pbc="T T T"
Rb      39.14642286       0.36320247     259.70232373
Rb      41.89099128       4.30906469     246.77533771
Rb      50.26927652       0.20024431     185.59502411
Rb      46.62346759       4.46944962     264.11512387
Sr      28.92252174       2.91256691     207.61814332
Rb       2.88823211       2.43918764      77.86817460
Rb      24.66244412       3.10067420     152.33151853
Rb      24.35659584       2.00052450     258.72694029
Rb      35.73317567       0.18584375     168.27586801
K       26.21526269       4.40295931     195.47742331
8
Lattice="5.96438455581665 0.0 -3.28364896774292 -3.8706302974572395 5.59444572817826 -0.21973849833011627 0.0 0.0 6.805832386016846" Properties=species:S:1:pos:R:3 pbc="T T T"
La      -2.57248488       4.17000388       3.88328599
Er       2.34569608       1.37071151       2.35006206
Sc       2.34509153       1.37062598      -1.05298397
Sc       0.40905649       4.16773938       2.24189351
Sc      -0.63834517       1.36961694       3.99348488
La      -0.63875657       1.36940211       0.58960747
Sc       0.40896353       4.16636822      -1.15981740
Sc      -2.57381084       4.16762067       0.48223636
12
Lattice="13.59400749206543 0.0 206.2763671875 1.261569108992248 2.55304902629037 203.4053192138672 0.0 0.0 247.7885284423828" Properties=species:S:1:pos:R:3 pbc="T T T"
Li       4.27750979       0.43832082     172.96283628
Rb       8.27974765       1.07944284     285.03492843
Rb      13.17149161       1.96722837     438.94772847
Fe      10.70102950       1.23915471     342.21395420
Rb       6.53411599       2.35862278     354.58595298
Rb      10.38571748       1.64659255     490.40894874
Rb      13.82561787       0.56941193     485.75397648
Rb      13.85830781       0.74920760     415.20036794
Rb      11.09015886       2.18090473     361.64438544
Rb       8.33348498       1.81222025     473.68572044
Rb       1.59244986       2.09896321     312.04187553
Rb       1.67670726       1.52884520     286.96779260
4
Lattice="3.586982488632202 0.0 1.0918372869491577 1.625508989514983 3.198702224454411 1.0928666591644287 0.0 0.0 6.4310150146484375" Properties=species:S:1:pos:R:3 pbc="T T T"
Li       1.60465146       1.15444371       6.26658123
Se       0.36219806       0.39104484       3.91833363
Ru       4.21294683       2.75410874       4.14087249
Se       2.85360218       1.91963228       2.17266104
8
Lattice="3.827511787414551 0.0 -0.9021105170249939 -0.21470875723889887 3.8748246982122065 -0.9301315546035767 0.0 0.0 8.45088005065918" Properties=species:S:1:pos:R:3 pbc="T T T"
Pd       0.67908310       2.78152385       5.34193853
Ti       3.03581532       3.25552727       6.72555118
Ti       0.34315388       0.36744968       3.95246047
Ga       2.15687454       2.31466857       3.06576689
Ga       1.21771073       1.30479318       7.60686467
Ga       1.57862575       3.74709224       0.65048140
Ti       3.60222420       1.81009377       0.66298836
Pd       2.69490721       0.83812589       5.33423156
5
Lattice="4.089559078216553 0.0 -0.41441431641578674 -0.4651134978672652 4.130724857184327 -0.5258785486221313 0.0 0.0 4.19464111328125" Properties=species:S:1:pos:R:3 pbc="T T T"
H        1.66978048       0.46294210       0.29235558
Sb       3.48667375       2.52407676       1.91955989
Pt       1.66885596       0.47061488       2.38576798
Pt       3.71657003       0.46532455       0.08566646
Pt       1.43987031       2.53775079       0.03128752
10
Lattice="6.401522159576416 0.0 1.7452027797698975 0.7876478802415934 6.807666749781383 0.2369845062494278 0.0 0.0 8.285994529724121" Properties=species:S:1:pos:R:3 pbc="T T T"
Cl       5.08468878       4.64200326       4.70112532
Ti       0.40433697       3.26408648       3.08746990
Ga       5.46473036       1.23008241       8.34504552
Cl       4.71900100       6.78953458       9.50407024
Cl       1.59503795       3.63271241       4.89009698
Cl       5.57055783       3.18445278       9.32608095
Cl       0.51853751       1.11068765       2.48544448
Cl       1.67389018       4.14407614       1.46528647
Cl       4.70899064       1.74812602       6.22961227
Cl       0.97955643       0.25862757       6.40722982
12
Lattice="31.74039077758789 0.0 118.04505920410156 40.57978049452504 1.9188429440569135 104.13087463378906 0.0 0.0 122.33224487304688" Properties=species:S:1:pos:R:3 pbc="T T T"
Rb      59.94079820       1.33642322     260.01094234
I       49.29439815       0.90468071     178.19040362
La      44.93104891       0.74267747     258.56933011
Rb      43.51730882       0.92779242     157.58364187
Rb      24.77508107       0.34485422     135.22225229
Br      13.05590832       0.27813881      63.52752608
Rb      29.10581505       1.04689783     193.70238135
Ag      51.78262562       1.22666458     163.21463162
Ag      45.83150855       1.48374516     167.31359162
I       19.81089287       0.07734653     164.83783118
Ag       8.78068332       0.25937220      72.42366565
I       51.15102735       1.72580150     263.57977187
4
Lattice="4.229963779449463 0.0 -2.433661460876465 -1.4190497388805177 3.984230829179891 -2.4376344680786133 0.0 0.0 4.898588180541992" Properties=species:S:1:pos:R:3 pbc="T T T"
Mg       3.05264086       1.52910706      -0.24680095
Ga       0.23133026       3.51776455      -0.25031167
Ho       0.23776634       0.52994913      -0.26003601
Li       1.64167791       2.52248174      -2.69574326
12
Lattice="5.143085956573486 0.0 -0.006542657036334276 -2.476134736944488 4.5064149086874306 0.014038451947271824 0.0 0.0 8.730331420898438" Properties=species:S:1:pos:R:3 pbc="T T T"
Tm       1.27581092       0.01045112       4.13290535
Tm       3.90362035       1.49501875       5.12983432
Tm      -1.15618619       4.48988211       0.50702697
Ni       0.05389763       3.76821552       6.69367449
Tm       3.94572812       1.46964944       8.18702009
Ni      -0.02526461       2.29965863       2.27852407
Ni       3.78310944       0.04755732       2.26567703
Ni       2.63557328       3.74697733       6.71014990
Ru       1.29831931       3.03619912       4.57506251
Ni       1.31627419       1.52014175       6.70779180
Tm       2.51329060       2.32252321       2.28852489
Ni       1.29855852       3.03576989       0.04017047
10
Lattice="34.863040924072266 0.0 118.71646118164062 24.274989860678033 1.1368466213594095 148.1779022216797 0.0 0.0 176.52488708496094" Properties=species:S:1:pos:R:3 pbc="T T T"
Br      18.78978304       0.16283373      92.06689959
Rb      38.53625053       0.94329727     229.61987814
Rb      17.43486351       0.08339009     170.56543525
Lu      50.08669467       0.71867608     267.69380029
Pb      27.06020352       0.42037193     275.25942080
Rb      30.74774919       0.26986267     198.04599327
Rb      19.11022814       0.87360378     153.05306067
Rb      11.25772702       0.41908186     206.13467864
Rb      39.41362294       0.64576129     309.12558963
K       53.70473717       1.04064883     302.71258885
4
Lattice="5.142553329467773 0.0 2.1842763423919678 2.0991359907568348 4.6905216158993275 2.1854193210601807 0.0 0.0 7.157477855682373" Properties=species:S:1:pos:R:3 pbc="T T T"
Tl       4.50451472       2.51951800       9.63941130
Rb       0.99736348       0.24652953       3.61207848
Bi       6.75630802       3.97676633       4.32816110
Tl       2.51134764       1.22757956       7.18528856
8
Lattice="5.703259468078613 0.0 0.002010160591453314 -0.0008087212828983232 6.287713952508025 -3.624673366546631 0.0 0.0 7.254483699798584" Properties=species:S:1:pos:R:3 pbc="T T T"
La       2.12246465       3.09880541       5.11533162
La       4.97242317       1.98001000       3.16255111
La       4.97247390       5.34920125      -2.14458420
In       4.97288486       2.13288845      -0.46884646
La       4.97293096       5.35570962       1.20662545
In       2.12155867       0.03582340       3.16071313
La       2.12138904       0.19445965       6.78454176
La       2.12057020       3.10248329       1.20856946
5
Lattice="19.955177307128906 0.0 126.70611572265625 9.321028381680662 10.22151653616512 159.59359741210938 0.0 0.0 121.02873229980469" Properties=species:S:1:pos:R:3 pbc="T T T"
Rb      15.59280116       5.66477841     176.75525040
Mo      11.14704379       9.29963315     199.12065429
Gd      10.80439806       8.87644820     264.78258448
Sm       3.44351022       2.80303646     140.57685188
Na       8.13469298       7.89067339     211.38015647
10
Lattice="3.2910451889038086 0.0 -0.35331425070762634 0.003418394288923715 5.169709982794857 0.0027742560487240553 0.0 0.0 15.375686645507812" Properties=species:S:1:pos:R:3 pbc="T T T"
Tm       0.58459783       4.29516020       4.77497158
Mg       2.38246775       1.71177811       6.01055490
Mg       0.22917266       4.29852292       1.50443820
Mg       2.87125365       4.30055694      10.52962155
Tm       1.54795427       4.29932038      13.68219714
Mg       0.05941467       1.71436001      15.33110871
Tm       1.06343642       1.71242320       9.21294963
Mg       2.55298652       4.29600851       7.56327622
Tm       2.02668619       1.71271778       2.74497948
Mg       3.02984541       1.71670648      12.01385259
9
Lattice="4.295202255249023 0.0 0.006156441289931536 0.00889875057405578 7.0938889002541705 -3.9272801876068115 0.0 0.0 8.118762016296387" Properties=species:S:1:pos:R:3 pbc="T T T"
Ce       0.66021872       5.71337086      -2.92970460
Ce       0.65401248       4.13595967       1.49829610
Rh       0.65937384       3.60322422      -1.20304863
Ce       2.80493609       1.78215438       0.27815803
Ce       0.65794105       1.05256626       5.85542819
Ce       2.80691528       5.94123496      -0.48369765
Te       2.80786290       5.99499678       2.86228213
Ce       2.80492645       3.06390174       4.46543521
Te       0.65260259       1.24880446       2.73615500
11
Lattice="546.553955078125 0.0 1529.4344482421875 236.51177075087617 272.8125775501424 2118.516357421875 0.0 0.0 1789.8394775390625" Properties=species:S:1:pos:R:3 pbc="T T T"
Ti     287.32332149      82.58765563    1440.77704020
Sr     705.86050433     204.57404945    4593.40433134
Ba      37.59097926      41.72746935    1972.24378725
Ir     392.89232882      47.10067942    2821.19929523
Ni     462.80114129     176.34170160    3870.25090237
Rb     364.29812393     150.49253452    2093.93025758
K      490.39391761      45.14650176    2161.03325826
Ni     435.81797272     268.44548607    4032.40134475
Y      195.71361160      17.60653477    1387.03246107
P      497.98288896     165.93038600    3005.23982546
Cd     429.46982396     181.15684583    2679.80519032
16
Lattice="18.07893943786621 0.0 646.6026000976562 21.780739125065338 2.2553094487271452 612.9358520507812 0.0 0.0 612.8123168945312" Properties=species:S:1:pos:R:3 pbc="T T T"
Br      26.96945782       1.63707978    1004.82540262
Rb      15.67152767       0.55204168    1030.59143331
Rb      11.09458881       0.86650194     551.80428838
Lu      10.84179607       0.78000783     375.90493383
Er      30.23638016       1.67881114    1240.95201968
Rb       5.31214931       0.38549433     202.20616941
Rb      20.88533585       1.45229815    1028.32273459
Rb      30.84274069       1.52238485    1348.30659342
Rb      13.97039593       0.75611586     685.17940877
Br      27.19174246       1.22650798    1005.27497644
Rb      11.98590130       0.33709284     986.68571693
Rb       1.78127265       0.04210684     346.41205408
Rb       6.38265408       0.25122818     278.44447621
Rb       6.39794397       0.46762346     685.22200078
Rb      12.72702286       0.30799758     580.17455651
Rb      12.12880734       0.83338721     879.78137297
10
Lattice="7.164165496826172 0.0 0.22845374047756195 -0.12019420697901924 6.795070100357362 0.4032594859600067 0.0 0.0 6.644857406616211" Properties=species:S:1:pos:R:3 pbc="T T T"
La       4.25309047       2.02707308       1.29296034
La       3.18614001       3.86245370       4.43020891
La       5.64014715       5.42152453       2.05500759
La       6.68753154       3.71721272       5.66823463
La       0.59195601       1.88367999       2.30293611
La       2.18878734       4.93669642       1.09834277
Cu       3.05465649       0.06887577       2.99633423
La       5.28510645       0.32392243       4.90330622
Cu       0.71269589       5.68685894       3.72958431
La       1.57723451       0.80720653       5.63390579
20
Lattice="7.504703998565674 0.0 -2.2961745262145996 -2.86668908448246 8.774949539871251 -3.4318974018096924 0.0 0.0 9.082255363464355" Properties=species:S:1:pos:R:3 pbc="T T T"
Pr       2.56794291       7.70629401      -0.10163425
Pr       0.37117690       1.76799345       6.45252313
Pr       4.36282369       7.83860905       3.29565928
Sn       5.93782055       3.86155363      -3.28004585
Pr      -1.07485543       7.85717810      -0.22063767
Pr       0.87935904       4.52928485       1.20319173
Sn      -1.20667648       7.31356084       2.89673519
Pr       2.74073616       4.82976639       5.05188314
Pr       4.08957735       1.15257952       5.85014170
Pt       1.57533069       6.98020858       2.83047213
Pr      -0.95800443       4.72802337       4.89726788
Pr       0.79005506       7.87959036      -3.51886404
Pr       6.30597059       1.73307991      -0.02892857
Pt       3.68113622       5.22834805       2.15621920
Pr       4.28082995       4.93753050      -0.71256115
Pt       1.13141718       2.61910252       3.81787638
Pr       3.73789892       2.30614860       2.54842212
Pt       3.62573524       7.55297784      -2.91887018
Sn       2.70481439       2.15315645      -0.43737199
Pt       0.74711157       5.57006248      -1.64288861
11
Lattice="24.470417022705078 0.0 205.32781982421875 2.051982403542325 4.665740902167893 210.50442504882812 0.0 0.0 210.5460205078125" Properties=species:S:1:pos:R:3 pbc="T T T"
Rb       4.58437781       1.30014215     231.32192081
I        9.32070151       2.43386658     251.31834078
Rb       4.75860888       1.29048374     123.06106223
Rb      18.11121882       3.34151461     312.59138798
Rb       1.39574063       2.63872409     231.64897747
Rb      20.30619786       2.78032918     401.15570523
Rb      25.04036725       3.08149322     379.96899579
Bi       6.20482498       2.13055283     216.81418862
Rb      13.42574426       4.56790900     474.95546837
Rb      21.45577194       1.59125955     283.89052247
Rb      17.34196019       1.95632203     343.21222292
12
Lattice="6.316864967346191 0.0 -0.5567944645881653 -3.2190285464166664 5.436299327170683 -0.557702898979187 0.0 0.0 11.915410041809082" Properties=species:S:1:pos:R:3 pbc="T T T"
Pr       2.15430096       1.17938861       8.43576706
Dy       3.74372888       0.27245041       2.47716208
Pr       1.33624213       3.45517917      11.16430135
Dy       0.56099917       2.08579698       2.47767758
Pr       4.52606547       1.63630746      11.16508626
Tb      -1.02468605       2.99092965       8.43518225
Pr      -0.22028464       0.72228701       5.70745882
Tb       2.11110840       4.80316055       7.87821719
Pr       2.92964817       2.54303160       5.14804235
Pr      -1.84286938       5.25228927      11.16499811
Dy       3.70166020       3.89784383       1.92129019
Pr      -0.24987466       4.33922891       5.15009418
4
Lattice="36.46150207519531 0.0 500.2856140136719 14.571459874571241 22.00434510905458 478.845458984375 0.0 0.0 646.0159912109375" Properties=species:S:1:pos:R:3 pbc="T T T"
Rb      25.10442216      19.06104314     706.62806262
Rb      41.70435465      20.79914630    1255.80699186
Rb      33.47358232      10.90745620    1126.17363395
Rb      17.50195119       5.87780665     316.26040727
8
Lattice="5.072309970855713 0.0 1.9712891578674316 0.3940361716195181 5.5839538809959945 3.294353723526001 0.0 0.0 6.841421127319336" Properties=species:S:1:pos:R:3 pbc="T T T"
O        1.54476002       0.09295900       3.87921447
V        5.35116946       4.78734657       9.61623827
O        3.59449930       5.45730357       9.95996894
O        1.25354159       3.66018156       8.86420968
O        4.66175887       3.88934838       8.05766192
Cs       2.31160949       2.85747148       4.87761298
Cs       0.46267915       0.91607833       1.03093077
V        2.90937703       4.55915161       8.39799124
8
Lattice="5.802433490753174 0.0 0.012655874714255333 0.025382952276093464 6.31858924826356 -3.619908332824707 0.0 0.0 7.282822608947754" Properties=species:S:1:pos:R:3 pbc="T T T"
Sm       2.93163122       1.97805001       4.82687745
Sm       0.03854232       4.10953878       4.82611499
Sm       0.04125035       4.10497154       1.22839393
Lu       0.02970904       0.93473675       3.02090679
Sm       0.02751436       0.91187138       6.65938036
Lu       2.94700285       5.14780028       3.03539522
Sm       2.94579405       5.17189286      -0.60496914
Sm       2.93186457       1.97406634       1.22674845
12
Lattice="3.849611520767212 0.0 0.007388283498585224 0.035326202302480084 7.657047798485138 -4.2485761642456055 0.0 0.0 8.206385612487793" Properties=species:S:1:pos:R:3 pbc="T T T"
Rb       3.25763935       6.07530200       2.29107350
F        1.33897322       5.54771232       4.83269674
Rb       1.32094108       2.51567727       0.31610590
Rb       1.31972916       2.65890060       4.29518889
F        1.33441295       5.50748151       0.00285830
F        3.23114115       0.07471576       4.17534088
In       3.26867165       6.66329199      -2.25706889
F        1.33999655       7.54274580       0.74410781
F        3.23862562       0.31565599       0.37079934
F        3.25018138       2.62285151       6.39061002
F        1.31108534       0.12149404       2.33152700
F        3.25065150       3.33340677       2.37910585
4
Lattice="4.322241306304932 0.0 2.4963581562042236 1.4414749790609558 4.075130153271641 2.49595046043396 0.0 0.0 4.9917192459106445" Properties=species:S:1:pos:R:3 pbc="T T T"
Ho       4.61328533       4.01615289       5.00766567
Ru       4.61217382       0.96096882       5.00764447
Ce       1.73186880       1.97906645       5.00787050
Ag       3.17246776       2.99707451       7.50346945
10
Lattice="42.046905517578125 0.0 368.24945068359375 17.427860694014836 44.079873420715444 409.0958557128906 0.0 0.0 383.3468017578125" Properties=species:S:1:pos:R:3 pbc="T T T"
Cs      16.67475149      36.26733732     386.59155442
Eu      16.20071992      36.95858134     360.43746198
Rb       5.44066931       7.18211887     220.05321438
Ti       8.04585667      15.13531950     446.56006827
Rb      33.34272436      29.71748141     716.38774103
Rb      20.23105568      40.42181913     628.53849198
Rh      30.22460104      16.28815874     645.92330702
Rb      43.57618545      26.00356145     848.21196279
Rb      32.30855183      18.15634545     404.76862336
Rb      24.87055351      10.66606423     561.93899371
8
Lattice="11.503958702087402 0.0 67.8301773071289 15.554863422235483 6.857937637638672 68.0256576538086 0.0 0.0 71.42707061767578" Properties=species:S:1:pos:R:3 pbc="T T T"
Br       8.02203208       1.67080215      65.99719117
Rb      15.11722682       4.67879909     125.65912436
Cs       7.81334908       1.69050473      99.86660695
Rb       9.19497898       2.78321321      88.83457928
Ce      22.53016100       5.20637441     181.16443061
I       13.30692494       5.62738431      64.50268348
Rb      10.85031814       0.20240078      95.15422549
Hg      17.12516271       4.54185384     111.68915337
12
Lattice="3.1236894130706787 0.0 -0.005276291631162167 -0.015682344658526734 5.750933722606432 -2.2412807941436768 0.0 0.0 8.372550010681152" Properties=species:S:1:pos:R:3 pbc="T T T"
Nb       0.55906940       1.19607487       1.54310684
N        0.55875670       2.09578061       3.58173473
N        2.10992773       5.60617536      -0.12689619
Nb       2.11720778       3.55090716       3.11263388
Nb       2.11918260       1.88585196       7.25364222
O        0.56236241       0.71493414       7.89188850
O        0.55461697       3.22708855       6.94934892
Nb       0.55084578       4.23481762       0.38192378
Nb       2.12372054       0.73892762       4.20105200
O        2.11567275       4.20981816       4.79489408
O        0.54948547       5.01286400       2.48772789
N        2.11698666       2.71236964       0.93679565
12
Lattice="5.868922233581543 0.0 -1.264784574508667 -0.8010734535332636 6.0686103396122375 -3.6115407943725586 0.0 0.0 10.52501392364502" Properties=species:S:1:pos:R:3 pbc="T T T"
Tl       4.48332134       5.08943384      -1.18877854
Tl       2.64256798       0.40306686       8.77291996
Tl       4.89486411       2.08271450       0.58400966
Ba       4.95149206       2.16603049       4.26360506
Cd       2.35983200       0.50093017       1.98758954
Tl       4.56482834       5.23479937       2.52225050
Pb       2.11011014       0.14602463       5.24195604
Pb       5.13380857       5.33620538       6.01894260
Pb       5.53891393       2.25691505       7.85380092
Tl       2.30149076       3.52120893       7.08370789
Pb       1.69610271       3.43116989       3.30061345
Cd       2.00321011       3.51961774       0.15597425
10
Lattice="5.808934211730957 0.0 1.337035894393921 3.6333909106518827 7.735458734998141 -0.15615631639957428 0.0 0.0 8.570464134216309" Properties=species:S:1:pos:R:3 pbc="T T T"
Ag       3.87387414       0.95952284       8.36538618
Tl       6.81347924       4.53163592       8.32372175
Br       8.45421156       6.79506785       6.67047015
Br       5.19656019       7.36907188       1.09496999
Br       3.83938475       3.38655863       0.88914304
Br       6.80053099       3.55857689       5.07286167
Tl       5.86826100       7.02754727       4.44702179
Br       8.20126468       7.34668236       1.80807114
Br       2.82221158       2.07533780       6.24639262
Br       5.35298814       3.50968718       3.08515672
14
Lattice="5.193202495574951 0.0 -0.005535404663532972 -1.9171157346104624 4.8277484791278304 -0.00860503688454628 0.0 0.0 6.380645275115967" Properties=species:S:1:pos:R:3 pbc="T T T"
O        0.25587974       0.77204213       2.54123595
Li       0.05694901       4.43085465       2.28000115
Li       0.05622674       4.43287499       5.47318198
Sc       2.41326532       2.83008917       3.86534532
Si       2.56441812       2.73200113       0.68012081
O       -0.69165447       2.95685903       3.87882859
O        2.72466132       1.08066882       0.68697220
O        1.77597476       3.26767864       2.02541874
O       -1.03419474       3.19645379       0.68888939
Si       4.66110357       1.30623647       3.88126376
Sc      -0.38299920       1.20587674       0.70032839
O        3.06664231       0.84638043       3.87856036
O        1.78414048       3.26264837       5.71705477
O        0.24759774       0.77841996       5.23117545
15
Lattice="82.30342102050781 0.0 1234.0997314453125 -30.014870520449467 93.34985731015632 1324.2490234375 0.0 0.0 1241.0078125" Properties=species:S:1:pos:R:3 pbc="T T T"
Rb       0.21252427      93.05323593    2264.62303896
Rb      -9.61353612      45.76035443     851.54779909
In     -15.53271950      56.91799199    1846.48997309
Rb      17.41941986       0.95398317     686.02052171
Rb      46.84409147      12.74214294    2149.16174243
Sc      27.78030624      39.39133819    2152.64146817
Sb       4.86090119       3.93394100     446.33115045
Nd       4.88537349      77.49374494    2261.75870891
Rb      65.58320362      50.93527071    2041.73878642
Lu      18.45173192      88.74962756    2358.75272379
Rb      28.27865318       7.22590134    1430.52689682
Rb      79.71499532       7.09362704    1437.11070880
Rb      39.64180504      15.55239400    1668.80261103
Rb      39.07874027      83.80672806    2703.16917133
Rb      33.50406986      33.59478285    2086.37308765
4
Lattice="16.49484634399414 0.0 295.71051025390625 18.77803748235146 18.440841648469483 296.7900085449219 0.0 0.0 294.7856140136719" Properties=species:S:1:pos:R:3 pbc="T T T"
Tl      13.09344860       3.40864160     356.38749335
Nb      13.47228631       4.94210776     405.78422939
Rb      11.95450089       5.45290382     261.63835968
Rb      22.51229208       6.25739043     650.71628645
18
Lattice="5.217510223388672 0.0 -0.0042713358998298645 -2.6146871744563214 4.514140582592186 -0.005395039916038513 0.0 0.0 9.305841445922852" Properties=species:S:1:pos:R:3 pbc="T T T"
Li      -0.73296632       2.96627739       7.29131361
O        1.12955101       2.95004908       6.03096874
O        2.82615878       0.05525010       8.55218811
Pt       1.87234969       4.47373340       4.95754154
Te       1.87535356       4.47252100       0.30914945
Te       1.88028708       1.46139189       4.96239389
Li      -0.73224996       2.96704718       2.63847505
O        3.57016261       1.34927033       1.38436322
Pt       1.88183690       1.46014168       0.31602434
O        0.93668414       0.05543529       1.38764214
O        2.79590113       0.07010432       3.89639971
O        1.13225094       2.98086603       1.38285231
O        2.62549293       2.94835694       3.88921072
O        0.18996647       1.34436207       8.55296750
O        0.21734121       1.36663530       3.89528912
O        0.96292242       0.07497331       6.03701725
O        2.62552438       2.98311567       8.54868951
O        3.54094490       1.36508079       6.03062763
13
Lattice="7.736539840698242 0.0 -1.4746291637420654 -2.6534679696487737 7.771866450466299 -4.435057163238525 0.0 0.0 10.140670776367188" Properties=species:S:1:pos:R:3 pbc="T T T"
Cd       4.82631753       3.21138610       2.59528780
Rb       0.07891494       6.23666488      -3.38747744
Tl       0.71929073       3.12203766       2.87362116
I        3.20645696       7.58751387      -5.33105792
Rb       5.77801770       0.13308125       5.63568465
Br      -0.79374403       3.06166576       5.70730006
Br       3.35197663       1.17482221       3.08647035
Br       3.20109231       4.87217024       3.94884998
Cd      -1.15150953       5.95224982       0.87285099
Br      -1.16221183       6.56619620       3.42767659
Br       5.36072992       3.36777918      -0.00412550
Br       1.23743587       5.24214977       0.12600946
Br       4.98092755       7.12964162      -2.11477046
6
Lattice="4.604716777801514 0.0 0.00014526385348290205 -2.2952283018092605 3.9920384825825423 0.006642506457865238 0.0 0.0 7.3524627685546875" Properties=species:S:1:pos:R:3 pbc="T T T"
Al      -1.35703282       3.94329731       0.70831826
Ba       3.24238219       1.28247707       5.53742259
Mg       3.24242480       1.28140002       1.86545261
Al       0.94199821       2.61185481       3.02918585
Si      -1.35867556       3.94279097       3.31778058
Si       0.94151024       2.61056206       0.41597005
8
Lattice="4.314466953277588 0.0 1.2975778579711914 1.9620586976092376 3.843052058137607 1.2968287467956543 0.0 0.0 7.827337265014648" Properties=species:S:1:pos:R:3 pbc="T T T"
Mg       1.86387015       0.21409759       8.12605846
Mg       3.40974576       1.16101799       2.97774198
Mg       4.97657525       2.12012774       5.59316666
Li       1.46196054       2.60906180       1.63676288
Rh       3.04277120       3.57776187       4.19634897
Mg       2.26156022       3.09973400       6.80135061
Rh       4.19305787       1.64052722       8.20381155
Pd       2.63737519       0.68806703       5.55104324
16
Lattice="7.444116592407227 0.0 4.185619831085205 2.548754565998877 6.996265166961326 4.186028003692627 0.0 0.0 8.715654373168945" Properties=species:S:1:pos:R:3 pbc="T T T"
Te       0.56460250       0.36367652       2.30615481
Tb       7.95697787       5.53858287      10.94872360
Tb       6.65279837       2.10836119       8.75997175
Tb       4.46790816       5.61672719      12.94175658
Te       1.83928408       3.86316804       4.39986307
Tb       4.28699336       5.49108878       8.76193024
Ge       1.83988622       3.86227105       8.75719262
Tb       3.05467336       2.10621671       6.73419805
Tl       0.56352693       0.36485520       6.66521171
Tb       6.83549248       2.23544245      12.93999924
Tb       3.16333495       2.18616043      10.75288498
Tb       8.06604516       5.61599367      14.96347047
Ge       4.28591416       0.36450134       8.75752291
Te       4.28781611       0.36418165       4.39970347
Ge       5.55989056       3.86203043      10.85092705
Te       5.56021650       3.86204211       6.49372955
12
Lattice="4.995945453643799 0.0 1.4683961868286133 2.261408373267614 4.454918497992191 1.4677993059158325 0.0 0.0 9.11568832397461" Properties=species:S:1:pos:R:3 pbc="T T T"
Zn       6.53992442       3.72432366       3.86456135
Zn       2.18400088       2.59207597       4.78191649
Zn       4.70330827       2.59473636       5.52240137
Li       4.31322309       2.35659180       2.23127695
Zn       1.10021478       0.38364879       8.45450793
Ce       1.54103868       0.65343887       2.44225403
Zn       2.23880848       2.62621008       9.19801145
Li       0.61246360       0.08477302       5.57777482
Li       5.17474832       2.88472612       8.44641630
Zn       3.55976766       0.35033319       4.78080732
Zn       3.61380543       0.38565069       9.19700698
Zn       2.89942918       1.48744420       6.99573059
12
Lattice="3.9127795696258545 0.0 -0.7778231501579285 -0.4308655521214189 7.801047112317752 -2.3821749687194824 0.0 0.0 10.060335159301758" Properties=species:S:1:pos:R:3 pbc="T T T"
K        1.93039782       1.99688751       1.60701751
Tb       1.54718207       5.33406061      -0.42493400
Tb       2.50748913       5.48733757       4.36075517
Pd       0.05167059       7.63692732       2.21260202
Se       0.96197598       0.42711677       6.95828892
Pd       0.95970072       3.67694346       6.79244037
Pd       3.01035335       1.89694675       6.96863441
Se       3.46602309       7.29947419      -1.02569072
Se       0.94269528       6.08282084       6.66430964
Se       3.42769353       3.27465556      -1.09632183
Se       0.12493798       5.09942356       2.65666784
Se       0.50374840       2.50551393       4.59642681
10
Lattice="5.37178897857666 0.0 -1.2004636526107788 -0.26896223350537957 5.3642936737891125 -1.2021028995513916 0.0 0.0 12.602783203125" Properties=species:S:1:pos:R:3 pbc="T T T"
Hg       3.07442075       2.38938653       7.36973222
Sn       2.07757237       4.16573303       2.91625883
Hg       3.90055750       3.26051429      -1.54228580
Cs       4.89434165       1.48328164       2.90943385
Hg       0.24525155       5.06358439       7.34028495
Sn       3.64136202       0.16490792       9.91619564
Pb       0.77176859       2.79057663       9.67361046
Sn       1.47706912       3.53638450       0.22373581
Hg       1.34886138       0.57561248      -0.33450361
Sn       2.67456829       4.79683852       5.59658127
8
Lattice="4.892766952514648 0.0 1.48210871219635 2.22441969377985 4.358029142445185 1.4813278913497925 0.0 0.0 8.849961280822754" Properties=species:S:1:pos:R:3 pbc="T T T"
Ce       3.80119082       1.08367271       8.74652189
Ce       2.51561278       3.29214146       4.16669100
Au       3.38233755       3.82457449      10.13487412
Au       2.93213193       0.55225333       2.77754854
Li       5.60412946       2.18724451       2.77284528
Au       4.72353431       1.64935356       5.69061828
Au       1.59238198       2.72805216       7.22333416
Ca       2.04471667       0.00860478       5.72109444
4
Lattice="3.5959200859069824 0.0 2.0777344703674316 1.1999378662699203 3.389161388601262 2.077634334564209 0.0 0.0 4.1519880294799805" Properties=species:S:1:pos:R:3 pbc="T T T"
Ni       4.14386739       1.86226051       7.17119443
Zn       1.74601742       2.70838547       3.01709538
Ir       1.74616718       0.16822666       3.01912787
Ni       2.94396506       1.01358892       5.09263319
6
Lattice="7.960173606872559 0.0 19.022897720336914 2.790897894464023 9.447696426799796 20.32170867919922 0.0 0.0 17.851421356201172" Properties=species:S:1:pos:R:3 pbc="T T T"
Pt       7.79718227       6.58029582      29.76535826
Pt       3.41842217       0.34728640      24.42769017
As       8.04796638       7.50172127      41.76313603
As       1.96587160       3.56787772      14.41871177
Pt       3.39894094       0.34628657      15.56173973
Pt       1.34876748       4.03524294      21.55850040
5
Lattice="4.969763278961182 0.0 2.547747850418091 1.8324311907280721 4.62234597296353 2.5452382564544678 0.0 0.0 6.139804840087891" Properties=species:S:1:pos:R:3 pbc="T T T"
Cd       1.02695257       1.53208642       5.25744055
Tl       5.03689752       4.25764545       9.68479407
Cd       3.67688576       3.33556308       6.20660819
Sn       2.35227585       2.43386842       2.66103532
Tl       4.63597788       0.60899905       4.32790009
15
Lattice="7.515198230743408 0.0 4.332233905792236 2.5045909679653264 7.086498913455485 4.333143711090088 0.0 0.0 8.676518440246582" Properties=species:S:1:pos:R:3 pbc="T T T"
Sm       3.78156453       2.79181949       5.73158610
Ho       5.03256060       6.33411604      12.23555084
Y        5.03193220       6.33432090       7.89753807
Y        3.78125432       2.79085877      10.06924815
Y        7.53723965       2.78987186       7.89724893
Ho       7.53703353       2.79193502      12.23566915
Ho       8.79057215       6.33485775      10.06312180
Te       5.09511179       0.94954558       3.48458830
Te       1.17714099       0.94901991       5.74951009
Te       6.29152215       4.56742734      10.07965278
Te       1.26685571       1.01347055       1.38172520
Te       5.07665740       0.93923867       7.97629277
Te       6.38290881       4.63148970       5.71468034
Te       2.46697383       4.63095369       7.97746019
Te       2.48320644       4.64436494       3.48483818
20
Lattice="17.704837799072266 0.0 348.9346923828125 -13.66113036842762 6.766394242202671 361.3394470214844 0.0 0.0 328.15240478515625" Properties=species:S:1:pos:R:3 pbc="T T T"
Rb       3.91806896       2.16100411     558.97609368
I       10.92719613       1.77757224     384.09531986
Ni       0.60987209       4.49674608     633.78038850
Li      -1.61032188       4.80378768     702.59298892
Rb       0.16920783       6.42178969     640.23275988
Sn      -2.53400434       1.73593104     373.35965643
Li      -6.37816535       6.60545640     643.38287588
Rb      12.03229390       0.15849652     375.09993894
Rb       8.61563865       2.82050066     468.02941470
Rb      -4.29270042       5.26161021     704.35847846
Te      15.73527647       0.50361206     656.68593478
Sr      -4.27687675       2.79258385     357.65502863
Li      -4.37329019       3.58155232     394.18423832
Pt      -7.21320168       3.88944410     236.02412068
Rb       6.77812871       3.07260156     638.85785474
Rb       0.23055112       2.78501476     443.61388891
Li      13.09766350       1.52985117     723.38356454
Br      10.26215935       1.42963596     423.89000796
Mg      10.73951832       2.40549155     704.56207322
Rb      -4.00395109       5.33723499     481.66206794
6
Lattice="3.61584210395813 0.0 1.2522636651992798 1.5306644575684911 4.3863512773490125 1.4911611080169678 0.0 0.0 5.906801700592041" Properties=species:S:1:pos:R:3 pbc="T T T"
Li       3.03947335       4.22367744       6.71356976
Li       1.91303061       2.34902100       4.07220159
Ni       2.50238208       0.38247987       2.33868247
Ni       0.91889461       1.80717163       1.05097094
S        0.35860096       0.32542807       2.68176449
S        3.06125413       1.85988260       6.61822347
12
Lattice="22.609392166137695 0.0 419.1903076171875 -33.4427853727484 12.013680563063902 408.5355224609375 0.0 0.0 388.3192443847656" Properties=species:S:1:pos:R:3 pbc="T T T"
Rb       0.01103045       7.78455569     840.26777712
Rb     -13.41262135       9.85748431     737.12047739
Rb      -0.05425612       3.84618327     642.15990510
Rb     -18.25586850      11.20611627     963.23677448
Rb      11.79877882       3.77798966     793.91691996
Yb     -10.42199418       5.92140512     491.17330669
Rb      -4.77993447       2.74564276     249.09635883
Rb      -3.77329616       6.46894392     778.01797818
Rh       9.21536786       2.31921880     398.11669515
Tb     -18.40164702       6.95249603     465.56196739
Rb      -9.16651940       9.77936167     721.09677344
Cu       1.64273739       4.82900454     644.96186945
12
Lattice="45.76076889038086 0.0 767.649658203125 65.51323988251534 14.95348952013055 792.9321899414062 0.0 0.0 892.9212036132812" Properties=species:S:1:pos:R:3 pbc="T T T"
Sc      72.38533930      11.93816703    1504.88337179
Be      95.74520969      12.66386318    1963.84992219
Ba      89.52756463      14.92285741    1348.25208385
Sb      37.36290094       1.64254998    1095.18941815
Pd      33.10506203       1.99726229    1039.31761075
Ho      94.36714007      14.28096461    1734.28435766
Rb      24.66512438       4.91969666     890.67069662
Rb      78.19454127      10.55814002    1674.51585436
Rb      74.37280189      10.16777938    1172.39966882
Rb      12.41182443       1.14744528     403.43376152
Rb      39.26566358       0.02403817     792.67708666
Rb      61.87534046      13.24095331    1543.48747680
9
Lattice="6.838833808898926 0.0 222.574462890625 9.549082638118303 22.45013354440316 212.0126495361328 0.0 0.0 222.9139862060547" Properties=species:S:1:pos:R:3 pbc="T T T"
Rb      10.61095251      12.83009885     388.89983595
Rb       7.32516053      11.08539788     320.07517476
Rb      11.80797962      19.44146231     499.67896772
Cs      11.36829953      16.69093150     499.74918953
Rb      11.62800412      21.56221189     422.90663606
Rb       9.38567309       9.28790292     288.65078985
Rb      12.10831445      19.53647371     457.22986546
Be       6.67889077      14.46166341     235.76324418
Rb      12.32708611      16.13438223     341.37569909
18
Lattice="5.858596324920654 0.0 2.4951348304748535 1.6510392269692888 5.618301180763038 2.4918627738952637 0.0 0.0 6.369068145751953" Properties=species:S:1:pos:R:3 pbc="T T T"
Ba       2.17929335       3.17893199       3.26329518
Ba       3.90113037       4.46110075       5.86250489
H        5.06966715       2.56346250       3.59971799
Y        5.14281722       1.01317860       7.74611383
H        4.24378106       0.33935013       3.28832888
H        1.39755860       0.34076178       5.17772589
H        4.72603688       5.07957408       9.44607494
H        3.03271756       1.68507434       7.82574643
H        1.35791068       2.56649598       6.05539296
H        6.84446603       4.42381891      10.31902422
H        0.75139286       0.50582838       1.10624960
H        6.86760881       5.07731467       8.01551494
H        5.09154248       3.22592793       7.66589197
H        6.04379352       1.68248440       5.84121944
Pd       5.14387755       1.01294980       4.56331737
Pd       2.21565286       1.01634009       6.50338901
Pd       5.96913622       3.82277860       8.99516184
H        3.68060064       1.52371527       5.53437623
5
Lattice="4.185186386108398 0.0 -1.9875227212905884 -0.6708425407516929 4.0131667118018655 -2.0927634239196777 0.0 0.0 5.504096508026123" Properties=species:S:1:pos:R:3 pbc="T T T"
Sm      -0.05168976       2.57489159       3.50751017
Zn       2.65756534       1.36435088      -1.07190900
Zn       1.11216963       1.36715075       0.99466740
Rh       3.12934941       3.83454614      -1.49754919
Rh       1.51153315       3.73216709       0.48880011
10
Lattice="6.421545505523682 0.0 552.2757568359375 13.16619205008692 0.5756014779877046 674.6563720703125 0.0 0.0 497.1480712890625" Properties=species:S:1:pos:R:3 pbc="T T T"
Rb       1.65712551       0.01451939     478.52950962
Rb       8.07618575       0.23058601     791.59260516
Rb      13.12843443       0.37614813    1225.75654762
F        1.91648716       0.01566945     242.13149299
Rb       6.44836346       0.16863477     449.91339729
Rb       7.42385893       0.16562802     930.11484172
Rb      12.72160508       0.40076409    1091.19739485
Hg      11.13982924       0.38137466     925.10604490
Rb       9.96242585       0.20639655     755.13486619
Rb       6.48995577       0.02472169     639.15157715
8
Lattice="4.298365592956543 0.0 -0.7857463359832764 -3.234202790939662 4.940287701492683 -1.2445582151412964 0.0 0.0 6.88200569152832" Properties=species:S:1:pos:R:3 pbc="T T T"
La       0.60449405       3.37625463       0.44981970
La      -0.55748983       2.13596465       3.52876765
Cu       1.78695877       0.12198015       3.03636483
C        1.64038588       2.49713561       4.91374549
C       -0.00743059       4.42168078       2.74730284
C       -1.56145735       2.39558186      -0.52556213
La       0.85901463       0.09191947       6.19803482
C        0.78556457       0.96959944       1.69536972
8
Lattice="6.73274564743042 0.0 22.530258178710938 6.013948698372074 11.86800387351334 19.15874481201172 0.0 0.0 23.99788475036621" Properties=species:S:1:pos:R:3 pbc="T T T"
Sr       5.42143094       6.87408613      37.52303779
Ce       5.75756628       1.17829981      25.01471325
F        2.53686950       4.68298174       9.37543503
F        8.78169263      10.52894144      41.33389012
Sr       6.15269584       4.52003099      21.56924605
I        5.48676588      10.77089436      30.91954837
F        5.18562495       9.94492178      17.59450333
I        5.84839508       3.60078220      32.01494792
5
Lattice="5.488897323608398 0.0 -0.0013900317717343569 -0.002699745978997265 5.486822894613535 -0.0004594042547978461 0.0 0.0 5.488590717315674" Properties=species:S:1:pos:R:3 pbc="T T T"
Y        5.45179549       5.29964736       4.21863948
Y        2.70866554       2.55839896       4.21789133
Ru       5.45363666       2.55711124       4.21723719
Y        5.45557169       2.55805916       1.47319414
Eu       2.70377222       5.30299724       1.47380086
14
Lattice="7.490715026855469 0.0 2.1129932403564453 1.9275910682029576 7.710078029413649 2.4329984188079834 0.0 0.0 8.431716918945312" Properties=species:S:1:pos:R:3 pbc="T T T"
Ho       2.08322132       3.96087579       7.54904211
La       6.91437958       1.95051801       8.95988190
La       3.17496790       0.77447178       8.65868767
La       0.35583504       1.18674494       2.49748082
Dy       4.96424868       0.36323147       3.09539096
La       7.76642258       4.79436231       6.64245393
Dy       4.98055476       4.88684943       8.87275689
La       6.70633000       4.36933784       3.34119402
La       2.30683867       0.50376792       5.38729666
Ho       3.06417233       3.24458007       2.89431363
Dy       7.86320837       6.97193293       9.32623923
La       3.99857402       5.84931232       5.21199065
Ho       4.95369870       2.60830461       5.99663678
Dy       2.18393985       6.40752682      10.32379897
12
Lattice="5.59035062789917 0.0 -0.9377904534339905 -3.038245534204919 4.691044337702281 -0.9372557401657104 0.0 0.0 5.719732761383057" Properties=species:S:1:pos:R:3 pbc="T T T"
N        2.69540180       2.28259610      -0.41779919
Zr       0.61691792       1.89342548       4.43046336
Er       1.90941975       4.23003640       0.63235757
Er      -0.83271730       2.68052363       1.57106543
N       -1.62027830       4.62739856       2.62455775
N        4.13113267       1.55461772       2.61266178
N       -0.22668188       3.81887307      -0.40739079
Er       2.05631226       1.11081225       1.57146609
Cr       3.33023538       3.45532251       3.49297524
N       -0.01740943       0.66509139       0.53020531
Zr       3.49680280       0.32640617       4.43052482
N        1.30254543       3.09112830       2.61147465
8
Lattice="127.74198913574219 0.0 1361.5108642578125 78.83958940944105 85.0814423688388 1378.6732177734375 0.0 0.0 1421.53857421875" Properties=species:S:1:pos:R:3 pbc="T T T"
Hg     122.86661336      23.38574596    2105.70839884
Rb     154.38385234      67.41826637    2793.42548617
Rb     119.56496059      23.82463722    2186.83717681
O       63.13549311      10.11571513    2112.25769295
Ho     112.20201055       6.73115204    2189.45733228
Ir     147.60938229      21.45843547    3050.15556159
Sb      66.04883501      64.06213904    1207.52178971
Rb     113.00630349      64.88560340    2600.30029741
12
Lattice="3.781111001968384 0.0 -0.8480843305587769 -0.4750318127025203 7.686453220426497 -2.107701539993286 0.0 0.0 8.878908157348633" Properties=species:S:1:pos:R:3 pbc="T T T"
Pr      -0.29886306       7.65650910       5.26659312
Pr       1.11778719       5.10914217       2.71419646
S        3.16680113       3.04002596       2.99266285
Pr       2.53917597       2.54280126       0.18428960
Pr       2.38023943       6.08200591      -0.52284973
Pr       1.43412753       0.95553600       4.11601030
C        1.98538230       1.75062342       6.58881370
S        0.80464017       0.46043376       1.30543371
Pr       0.01268979       3.53078229       6.65200525
S        1.74894262       5.59526731       5.53478374
N        0.57324998       4.33590098       0.27490536
N        2.92442493       6.84734588       1.91716941
8
Lattice="266.8427734375 0.0 1182.200927734375 142.5092127495145 39.96743913497333 1225.865234375 0.0 0.0 1712.07080078125" Properties=species:S:1:pos:R:3 pbc="T T T"
Br     106.61339023       1.96873731    1715.27638801
Pb     246.33504646       3.82339902    1771.32902319
Sb     283.90730815      10.83412276    2107.58234875
Pd     253.41997844      26.48611212    2488.33035251
Cu     338.89544740      28.52155705    2945.16955384
Rb     265.16447456      32.82371764    3081.59933285
As     222.55264453       6.28445168    1217.68302153
Nb     143.23654580      20.26300921    1264.09559682
8
Lattice="4.950958251953125 0.0 1.4818612337112427 2.2392859653956507 4.41698002604068 1.483624815940857 0.0 0.0 8.939737319946289" Properties=species:S:1:pos:R:3 pbc="T T T"
Y        3.64173398       4.07076165       5.18908033
Al       2.31802156       0.21694546       9.61041253
Y        3.23043070       0.77777799       6.57628541
In       2.74478887       3.51964142       8.16569155
Y        1.84108583       2.96572235       2.22631470
Pd       5.91117870       2.42359077       6.62104985
Y        5.03451256       1.88606726       9.53608648
In       4.12578154       1.32943766       3.59911983
5
Lattice="4.2386345863342285 0.0 0.007063194643706083 0.00695156634806947 4.237332363900016 0.008105142042040825 0.0 0.0 4.189853191375732" Properties=species:S:1:pos:R:3 pbc="T T T"
Ti       0.86863264       3.12285506       1.20357078
Ta       2.98666083       3.12293663       3.30057865
Ti       2.98221889       1.00439213       1.20209020
H        2.98839422       3.12309651       1.20763851
Sn       0.86467194       1.00320918       3.29338513
19
Lattice="50.36620330810547 0.0 727.2549438476562 34.337578035341494 17.484260864861554 830.0593872070312 0.0 0.0 758.540771484375" Properties=species:S:1:pos:R:3 pbc="T T T"
Rb      14.65923774       7.43234511     873.62405504
Sc      28.06289102       0.19097119    1138.96596641
Ce      44.58062906       6.58536462    1032.99364439
Rb      45.93669761      12.83066126     913.64346465
Na      32.05892627       3.64428787     770.05252301
Mo      37.07852399      10.01924978    1213.85001097
Rb      36.48553131       8.29740782    1186.82886639
Rb      26.24765094      12.01909332     922.13463715
Sn      36.26121986       2.21970891    1300.56019136
Ho      45.60610276      10.71706988    1082.59049057
Cs      27.28476992       5.24242508     664.19801912
Rb      71.73552669      11.36707853    1857.30218308
Rb      42.59749800      10.11842429    1188.35936402
Ag      58.30904885      15.11734324    1168.05803445
I       42.90751855      13.52954122    1338.64519092
I       67.01071641       9.86994297    1826.87636865
Lu      28.42880916       5.34989297     699.75873158
Dy      14.57248658       3.52712414     844.84500409
Rb      68.00457418      14.33130781    1905.31900725
10
Lattice="4.6581292152404785 0.0 -0.016845623031258583 -0.017347453303938346 5.332180891661845 -0.5468651652336121 0.0 0.0 11.388968467712402" Properties=species:S:1:pos:R:3 pbc="T T T"
Ba       2.99924732       3.08077444       3.07454539
Sb       3.00888095       2.94375724       7.55729876
Ga       3.00655997       0.21124709       6.58929851
Ga       0.66244325       0.07993156       5.48608236
Nd       0.69713452       0.29855252       8.79416028
Sb       0.68389613       0.41099459       2.83724654
Ga       3.01978953       3.19794520      10.26899334
Sb       3.02615609       0.50614600      11.26999008
Ga       0.66509669       2.80995291       5.87167425
Sb       0.68707335       2.56316641       0.10165471
18
Lattice="7.829911708831787 0.0 2.8455007076263428 2.4368409392039894 8.092043159219633 4.45854377746582 0.0 0.0 9.476643562316895" Properties=species:S:1:pos:R:3 pbc="T T T"
Dy       4.18914858       3.79708002       3.41692799
Nd       6.44143385       6.50628647      12.99535726
Dy       3.23748248       4.44184507       8.29150328
Nd       3.36014934       1.66668283       6.50977104
Nd       5.88147566       0.95158534       4.45405430
Nd       7.96322805       2.53059270      11.77992996
Nd       8.46248653       7.57925626      15.50050924
Nd       1.17984016       1.74000322       3.29556128
Dy       3.65003236       7.17075635      10.99546790
Y        3.50227840       1.64786800      10.20372136
Dy       6.07335703       4.79060730      10.10733739
Dy       8.93104528       4.69897551       8.24239872
Y        9.22019908       6.98098188      11.18513145
Dy       6.10123930       4.19448505       6.26672601
Dy       9.20689350       4.63567539      14.02720729
Dy       5.49653857       7.19772160       7.94671928
Dy       6.65671939       1.79048668       8.56014746
Dy       3.49540373       7.07471226       5.20427285
14
Lattice="401.5505676269531 0.0 2539.1337890625 275.22674113151874 204.55263686352964 3292.40283203125 0.0 0.0 2176.82763671875" Properties=species:S:1:pos:R:3 pbc="T T T"
Mg     439.77006195     147.18195109    5231.78981749
O      256.34539274     185.49811580    3866.93575094
Sb     353.58698009      83.92803561    3576.25292077
Tl     108.80796654      54.83431206    1758.02664226
Cu     675.96134198     204.36726533    6506.93849749
O      264.04755113      87.03881235    4505.76341336
Li     385.19600026     204.25881493    5469.01083845
Rb      63.76329466      44.00266882    1956.76097058
Zr      82.73092042      35.15041903    2541.48802933
Os     447.07219244     121.97064196    4375.93726936
Os     405.87824783     180.78597966    5762.40547653
Cr     407.19957074      26.20157280    3838.84795978
Si     599.24960757     160.65564774    5441.13764020
Rb     418.39546109     181.75803414    5184.73424301
4
Lattice="3.2069926261901855 0.0 0.0016437643207609653 0.00019147364644086704 3.205788845066184 -0.00029593182262033224 0.0 0.0 6.576366901397705" Properties=species:S:1:pos:R:3 pbc="T T T"
Hf       0.40252777       1.69128225       4.32576843
Hf       0.40268965       1.69171199       1.21903614
Fe       2.00593412       0.08820728       2.77500910
Mo       2.00566310       0.08874939       6.06279430
14
Lattice="6.412901878356934 0.0 3.7123830318450928 2.1501013888388916 5.9368933434014535 3.710286855697632 0.0 0.0 7.409247398376465" Properties=species:S:1:pos:R:3 pbc="T T T"
Se       2.62940309       3.25998200       8.06159541
Fe       4.53098102       4.76831248       8.06449263
Cu       2.39266658       5.52832059       4.35821841
Se       1.41039491       0.32054981       6.04418831
Rh       6.67066258       1.79009114       8.06497246
Se       2.38918597       3.10934000       4.35744881
Pd       6.66761189       3.98658299      11.76880158
Rh       3.45186462       1.79042112       9.91787944
Rh       3.45389818       1.78962598       6.19977618
Se       5.47677200       3.25368211       9.71484131
Se       4.52440157       0.51866042       8.05899729
Se       1.41378112       0.31751264       2.66259707
Se       5.47696042       3.24687443       6.41594743
Se       4.33040660       0.31376818       4.35360237
6
Lattice="7.891664028167725 0.0 10.11571216583252 6.157674151993092 5.124047669190942 10.764617919921875 0.0 0.0 17.408037185668945" Properties=species:S:1:pos:R:3 pbc="T T T"
As       8.62080457       2.06364064      16.65880839
Cs       9.64637400       3.88574008      31.08972009
Er       8.53102433       0.57873712      22.12654286
Ce       7.94501650       4.51231597      18.32287203
As       2.90160053       1.22433186       5.21177359
As       7.53518619       3.28734197      21.40104378
10
Lattice="5.277541637420654 0.0 0.011066845618188381 -2.603458539941912 5.938602671705582 -1.8741600513458252 0.0 0.0 10.800758361816406" Properties=species:S:1:pos:R:3 pbc="T T T"
Na       3.13423246       0.88493182       1.43257288
Na       0.51481858       3.73481832       7.40304144
Na       0.49917653       1.84890511       3.77532446
K        0.52944003       5.70288845       3.96695240
Bi       3.16018329       4.23206131       2.09134232
Bi       3.14618390       3.25634981       5.18040385
Bi      -2.11970638       4.98872130      -1.20055702
Na       0.50955225       3.23682244       0.19605200
Na       0.49311498       0.25904166       8.43890916
Bi       3.14030314       1.97490509       8.99663050
10
Lattice="3.1158740520477295 0.0 -0.0009034810937009752 -0.0028104048749608476 7.5502123370509215 -0.07744472473859787 0.0 0.0 7.557921886444092" Properties=species:S:1:pos:R:3 pbc="T T T"
Hf       2.08929953       3.49961045       7.00848448
Ti       2.08869385       7.29766848       5.63254833
Hf       2.09071651       1.08491097       1.90204719
Rh       0.53108421       7.13350602       3.44502548
Ag       0.53046570       6.08575282       0.65092524
Hf       2.08821544       4.88028740       3.24071332
Rh       0.53108513       5.10507940       5.49340762
Ag       0.53237987       2.30779325       4.47537318
Rh       0.53294126       1.21871524       7.17588859
Rh       0.53142346       3.32934966       1.70199651
6
Lattice="5.306722164154053 0.0 3.0621109008789062 1.768760268016422 5.006063778642013 3.0609772205352783 0.0 0.0 6.127285480499268" Properties=species:S:1:pos:R:3 pbc="T T T"
Ca       3.60398037       0.33032528       4.16744956
Mg       0.95599489       2.21172955       5.70837205
Tb       3.60398646       4.08509477       4.16599265
Mg       1.83443799       4.69740306       7.22714197
Mg       0.95680746       2.21276061       2.62644501
Mg       3.59264243       2.21067565       7.23007804
20
Lattice="7.01301908493042 0.0 1.5291485786437988 1.7140166006213764 8.939976160040535 1.317302942276001 0.0 0.0 9.215690612792969" Properties=species:S:1:pos:R:3 pbc="T T T"
Li       6.20159866       8.42772111       4.09826847
Pb       2.46341281       6.93004846      10.10279309
Cl       5.78334817       0.14164970      10.13340877
Pb       1.55672154       2.20546791       5.05991578
Li       1.78863178       3.13067945       9.68353048
Li       5.61540099       4.75793985       9.01023729
Pb       4.72086604       0.41852952       7.40673713
Pb       5.52474349       4.63115922       3.67754393
Cl       7.51935209       5.05070871      10.48196097
Cl       7.48440336       6.50840109       4.82598745
Cl       4.83885423       6.90912023       8.39733281
Li       2.37900439       6.80799221       4.76773904
Cl       4.15204199       7.43569547       3.25326130
Cl       2.06083993       8.43874873       6.43569387
Cl       0.48135154       2.47938257       2.32720249
Cl       4.13565855       1.00085400       4.55959120
Cl       3.15205863       4.65532514       5.38309969
Cl       3.83291309       4.13886792       1.31324488
Cl       5.93229047       3.12324093       7.34809094
Cl       2.13747495       1.62042961       7.90513367
4
Lattice="4.517505168914795 0.0 2.606466770172119 1.5052452948593777 4.260385381080479 2.6064209938049316 0.0 0.0 5.216068267822266" Properties=species:S:1:pos:R:3 pbc="T T T"
Y        4.23493944       0.17198172       7.56353931
Sm       2.72887077       2.30261761       4.95559724
Cd       1.22237070       1.23682751       2.34902837
Ga       4.23466640       3.36812712       7.56170520
8
Lattice="4.3334150314331055 0.0 0.0006202271324582398 0.00026303822864186184 7.098982329263792 -2.5370664596557617 0.0 0.0 7.469278812408447" Properties=species:S:1:pos:R:3 pbc="T T T"
La       4.27376054       5.29873879      -1.71096176
As       4.27401049       7.08136310       3.24745764
Pr       4.27582170       1.75036861       3.28672485
Ca       2.10861928       5.29806813       2.01931775
As       2.10816970       7.08544294      -0.47753681
La       2.10762622       1.74850249      -0.43847336
As       2.10812104       3.51706548       4.51897085
As       4.27391899       3.51730687       0.79536136
4
Lattice="3.9545114040374756 0.0 2.28898286819458 1.3199537122119411 3.728445556100301 2.2895750999450684 0.0 0.0 4.569000244140625" Properties=species:S:1:pos:R:3 pbc="T T T"
Sc       3.44271183       0.95478946       6.89770408
Pd       2.12600529       2.81961815       4.61343805
Ga       2.12418082       0.02197085       4.61161674
Ga       0.80598572       1.88620959       2.32572339
12
Lattice="3.5411081314086914 0.0 -0.668950617313385 -0.237314756696714 5.74852298334557 -1.2793915271759033 0.0 0.0 9.745009422302246" Properties=species:S:1:pos:R:3 pbc="T T T"
Sr       1.04710698       5.72237074      -0.78771304
O        0.19858289       4.96522426       4.43691214
H        1.13245078       3.24741179      -0.32054287
Sr       2.64826083       2.37857281       7.71684207
Sr       3.36570262       3.46411328       1.77571518
H        3.08573239       1.49963318       0.29843409
Ge       0.50884112       4.31172220       6.09025250
Sr       2.11078619       0.88117715       4.86178950
N        2.44105238       5.06384355       6.63823418
F        1.71919208       2.05772647       2.76550932
N        0.53755133       2.48306595       6.24061213
F        1.49985392       5.05464301       1.60834217
6
Lattice="3.6628799438476562 0.0 0.00812589656561613 0.012791300188938677 3.663530192167496 0.00824399571865797 0.0 0.0 12.907894134521484" Properties=species:S:1:pos:R:3 pbc="T T T"
Er       1.45179097       1.49690589       8.92369491
Mg       1.45181082       1.49624348       0.47420682
Ho       3.28920549       3.32884000       6.53484336
Mg       1.45239940       1.49711148       4.46386629
Ho       3.28929676       3.32952981       2.48069987
Ho       3.29029651       3.32847883      11.32143934
12
Lattice="5.771117210388184 0.0 165.73638916015625 -8.760676418263301 10.520575715976443 167.02581787109375 0.0 0.0 167.55471801757812" Properties=species:S:1:pos:R:3 pbc="T T T"
Rb       1.17825014       0.54446057     186.58894800
Rb      -6.75393237      10.02394973     247.74744610
Rb      -2.10173587       8.70846515     397.06991442
Rb      -4.66452499       7.41287202     253.34558780
Cs       0.50203379       5.33835119     232.57602580
Rb      -4.50950148       8.18078014     310.18239533
Rb      -2.61201116       4.90165416     206.65348699
Rb       0.17110236       6.10913695     250.02072324
Cl       2.87501772       1.70250817     205.86722535
Rb      -0.91627215       3.46771664     127.61969341
Rb       2.36705079       3.94140045     273.85137718
Rb      -2.37040760       3.50908448     135.26066968
12
Lattice="4.3693718910217285 0.0 -0.997887909412384 -0.47885348989105847 8.763373194007185 -2.076931953430176 0.0 0.0 10.089922904968262" Properties=species:S:1:pos:R:3 pbc="T T T"
Te       2.07952823       4.44211167       4.57733516
Te       3.44990922       5.99212386       0.51490689
Sm       0.01486269       2.23285754       5.59802884
Pr       3.00383904       0.83714973       8.63152525
Pr       1.37688324       3.70505159       1.49020467
Pr      -0.21666075       6.73159636       4.60068466
Sm       1.14601606       8.19746569       0.49745371
Te       2.31271205       0.13116486       5.58911242
Te       0.47815921       7.37661976       7.65001439
Na       2.76451200       5.21927084       7.59098075
Te       0.68220822       3.06266731       8.53262924
Te       3.69714064       1.54097601       1.58691885
8
Lattice="4.8879499435424805 0.0 1.4808892011642456 2.2196190460206817 4.355146819155782 1.4813742637634277 0.0 0.0 8.82506275177002" Properties=species:S:1:pos:R:3 pbc="T T T"
Pd       5.11010471       2.95449907       4.48944082
Ho       4.25402537       2.42997891       7.31273713
Ho       5.96242416       3.47594415      10.49016662
Ag       6.86233700       4.02781465       7.51496989
Ho       2.47022660       1.33658402       4.39272203
Ho       0.64141986       0.21609975       1.62318287
Ag       3.35699509       1.87998056       1.46201609
Hg       1.55505022       0.77581261       7.41941471
6
Lattice="3.47847580909729 0.0 -0.006882797926664352 -0.014163127281374449 3.4783783102270243 -0.007274930365383625 0.0 0.0 9.985283851623535" Properties=species:S:1:pos:R:3 pbc="T T T"
Li       3.24120145       0.31637568       5.68724577
In       1.49716632       2.05654516       4.02831790
Li       3.24134231       0.31640655       2.36393866
In       1.49550099       2.05662975       7.30838799
In       1.49263555       2.05426020       0.75473701
Al       3.24060548       0.31594040       9.01810390
6
Lattice="4.891407489776611 0.0 -0.007674998138099909 1.888473583979589 4.54308203489817 0.0124436654150486 0.0 0.0 9.074719429016113" Properties=species:S:1:pos:R:3 pbc="T T T"
K        4.23430825       0.78309573       4.64390505
Cl       1.63005822       2.32283545       2.89320878
Cl       3.74739597       3.72069133       5.80740867
Cl       5.38573640       1.56131035       0.08298406
H        1.03543146       1.92794890       1.57187271
K        2.97267166       3.22329619       8.60995819
9
Lattice="6.867738723754883 0.0 1.7193458080291748 1.7432592278209558 6.490287212131376 0.5453274846076965 0.0 0.0 8.511686325073242" Properties=species:S:1:pos:R:3 pbc="T T T"
Br       6.13672989       4.89786466       4.36894655
Cd       3.52064372       4.85238295       5.07286468
Br       6.04594542       2.11612090       2.25834252
Fe       6.70467587       2.39467277       4.58252373
Cs       6.41592152       5.62925804       9.20518275
Br       4.93409292       1.82905425       6.00349229
Br       1.34616080       0.37312958       2.64139091
Br       1.41563127       3.19203067       4.85514079
Br       3.20467921       5.51164675       7.52837730
6
Lattice="3.8480801582336426 0.0 0.0054907966405153275 -0.0006909933333047287 4.709318587153541 -2.2650485038757324 0.0 0.0 5.228982925415039" Properties=species:S:1:pos:R:3 pbc="T T T"
Yb       1.80106748       2.31084484       0.18863081
Si       1.80187591       0.73177902       2.69430831
Rh       3.72594080       2.30957075       2.80369515
Si       1.80022439       3.89012103       2.90637170
Si       3.72360322       4.66465235       1.67346049
Rh       3.72465660       4.66682102      -0.94288763
10
Lattice="6.606077671051025 0.0 -0.9173702597618103 -1.8103868271944923 6.23170063728618 -3.393159866333008 0.0 0.0 7.079621315002441" Properties=species:S:1:pos:R:3 pbc="T T T"
S       -1.06464441       4.80289449      -2.65149686
S        2.34853059       3.22450531      -1.82647120
Ta       1.15630632       4.24102831       3.65600649
K        0.33050926       1.72878511       0.08166379
K        3.49791869       0.40003673       3.45705166
Br       2.68254790       3.54039724       1.75719486
H       -0.96206593       4.86423121      -1.27346132
Br      -0.03185677       1.69838901       3.55666082
S        3.66801459       0.12498345       0.14398497
Br      -0.54793016       4.57070172       1.24297836
6
Lattice="2.7352614402770996 0.0 -0.5201858282089233 0.002447462937411894 4.449221891537495 -0.0015568854287266731 0.0 0.0 7.408655166625977" Properties=species:S:1:pos:R:3 pbc="T T T"
Ir       2.41031649       4.03043980       6.63012917
W        0.58303857       4.02978291       4.48589675
Ir       2.09320376       1.80649436       4.99733151
W        1.18671042       1.80656211       0.25140195
Re       1.49156640       4.03155361       1.82775824
Ir       0.26899077       1.80503247       2.86838561
12
Lattice="6.866311550140381 0.0 266.9029235839844 -1.477367134369416 15.199983401708257 266.15924072265625 0.0 0.0 294.81927490234375" Properties=species:S:1:pos:R:3 pbc="T T T"
Rb       5.30536804      14.00970603     562.35274948
Rb       0.66752056      11.23404831     492.17673727
Rb       6.14849635       2.17724252     416.45046598
Rb      -0.36268973       4.28898517     142.13861185
Rb       1.33552551      11.18352308     311.17583339
Rb       4.23870935       0.57170527     254.82262872
Rb       2.18329889      12.06640271     556.25091679
Rh       5.09666404       1.59851788     341.24367863
Rb       1.13584326       9.76207521     302.22015535
Rb       0.47313130       6.71401495     297.48193168
Rb       1.28374436       3.45213774     232.42759085
Cs       1.88738172       4.55951276     432.32436764
12
Lattice="7.4730730056762695 0.0 3.101134777069092 2.064912988925087 7.1789137930164895 3.1015498638153076 0.0 0.0 8.089357376098633" Properties=species:S:1:pos:R:3 pbc="T T T"
K        3.01241349       5.76032229       7.41585406
K        1.37429717       2.15031545       6.57578525
K        4.59208971       0.67177205       8.92813251
Se       9.34485557       6.54620020      13.63057437
Se       7.21383200       4.93826787      10.41444564
K        7.68666995       3.59694124       5.39099432
K        4.17190925       4.44444652       3.55436910
Se       4.65457296       3.01288055       6.58190008
Au       2.56621648       1.43776993       3.45697123
Au       5.93676060       3.97317318       8.50460678
K        5.31538192       0.09870749       4.97574469
Se       1.16682898       0.38237253       1.35918825
20
Lattice="59.648582458496094 0.0 171.35289001464844 83.31464690731127 17.580467478312347 135.2970733642578 0.0 0.0 212.2223663330078" Properties=species:S:1:pos:R:3 pbc="T T T"
Rb     120.73387941      16.60318232     369.63739740
Rb      58.31542906       6.45151468     282.45191224
Br      71.22235576       9.99777531     225.59698585
Cr     123.74211366      16.76740569     261.87964940
Rb      54.73432253      11.27054306      98.23181491
Rb      66.33270281       3.94764540     311.59757929
Rb      58.80864663       0.26633543     305.11182212
Rb      96.47917267      16.68063619     192.64105346
Rb     116.62822250      14.58274872     374.77566317
Rb      55.22304974       6.57878464     152.29586864
Rb      39.13434660       8.00085974     167.64067679
Rb      61.93758247      10.81667692     226.01264368
Hg      80.31892955      15.01342638     318.50480561
Rb      49.81463593       3.74813633     204.45027762
Rb      79.42450828      16.04862144     232.30812778
Rb      90.94750317       7.59980349     307.89995906
Rb      60.49818690       2.65417526     274.31203120
Rb      23.85783771       4.31136002     244.24564510
Rb      95.02265327       8.32222806     344.62702704
Cs      78.62765537      15.21256503     345.69760041
6
Lattice="4.421018600463867 0.0 0.03593853488564491 0.028583829113355174 4.47211381520697 0.03241031616926193 0.0 0.0 10.568283081054688" Properties=species:S:1:pos:R:3 pbc="T T T"
Br       3.11776655       2.96239353       7.96920508
Pt       0.90508721       2.95664013       1.48459080
Br       0.89231098       0.71830941       5.64960090
Pt       3.10778361       0.71924543       6.82346085
Br       3.12698732       2.95401106       2.67041651
Br       0.89616669       0.71058607       0.34304573
10
Lattice="3.741236686706543 0.0 -1.0356357097625732 -0.2781298744544535 5.4148005657491085 -0.9860908389091492 0.0 0.0 7.305600166320801" Properties=species:S:1:pos:R:3 pbc="T T T"
Pd       1.80834893       3.72945276       2.14649256
V        2.52435642       4.29422723       4.74866173
V        3.40191471       2.12607953       0.61530971
Pt       3.24053154       4.80041565       0.04022806
Pt       0.26105836       5.32636394       3.84944195
Pd       1.23461263       0.50260826       0.04930737
Pd       1.93249860       1.04674240       2.57801525
Pd       1.09230873       3.19954274      -0.45666520
Pd       0.37231542       2.64495885       4.23665278
Pd       2.68373863       1.60750569       5.31335085
8
Lattice="4.714422702789307 0.0 0.686043381690979 2.3045520714055105 4.116184542786561 0.6794726848602295 0.0 0.0 16.51768684387207" Properties=species:S:1:pos:R:3 pbc="T T T"
Bi       5.22212202       1.51053919      16.86750888
Ca       5.72046875       1.79811993      13.41681140
La       3.86548166       0.71224312       9.59903095
Bi       3.57573226       3.30664915      11.59280729
Bi       3.08003396       0.25569270      15.00901448
I        1.76967710       2.24829376       7.48027249
Ca       2.55772133       2.71873151       2.08400570
I        4.66545915       3.95536885       4.10672832
4
Lattice="4.526829719543457 0.0 1.881004810333252 1.8678408264844395 4.124038381923639 1.882824182510376 0.0 0.0 6.407488822937012" Properties=species:S:1:pos:R:3 pbc="T T T"
Ba       2.54313461       2.35058656       3.40478068
Pt       1.34711351       1.58056277       6.30469107
Cd       3.84356163       3.18935016       6.68230854
Tl       3.63669735       0.13818144       7.18564254
6
Lattice="6.874199390411377 0.0 141.6761474609375 3.034371932624679 5.537167174380091 113.5411605834961 0.0 0.0 142.37957763671875" Properties=species:S:1:pos:R:3 pbc="T T T"
Rb       2.99366279       1.73239004     139.45904762
Rb       7.67704284       4.84157928     316.15524919
K        1.10835324       1.99981292     145.61594375
Te       5.40279429       5.00311086     229.28862502
Mo       8.17244174       3.75616558     306.02402997
Rb       5.06216816       3.95681129     168.76005952
10
Lattice="3.728358030319214 0.0 -0.010921784676611423 -0.01659365552215447 3.72914222549063 -0.010633004829287529 0.0 0.0 19.649311065673828" Properties=species:S:1:pos:R:3 pbc="T T T"
Tb       0.16246538       2.87941308       4.59658982
Tb       0.16381584       2.87999478       0.70202102
Tb       0.16452852       2.88254448      12.28386531
Mg       2.03583765       1.01498389      14.24223230
Tb       0.16375646       2.88044399       8.44181750
Mg       2.03651595       1.01536987       2.63446206
Tb       0.16363562       2.88040465      16.17564425
Mg       2.03581064       1.01526107      10.37020532
Mg       2.03633525       1.01547679       6.51075432
Sc       2.03673625       1.01495489      18.26329583
12
Lattice="6.649024486541748 0.0 2.3534812927246094 3.3259783196915857 6.107154037606115 1.1839779615402222 0.0 0.0 7.0490803718566895" Properties=species:S:1:pos:R:3 pbc="T T T"
Tb       2.67812877       1.35738724       6.38328568
Ce       6.00277780       1.37269834       4.03582513
P        7.68852441       3.37664666       2.84616469
P        0.99144303       1.39707895       4.05111262
Tb       9.32804888       5.44133212       8.74327327
Nd       6.00465697       5.44114756       4.04048652
Ce       2.67905964       3.40172946       2.86148653
Tb       6.00333615       3.41753826       7.56355130
P        4.31671634       3.37720979       5.23054886
P        7.68742024       5.44007881       6.42655793
P        4.36435642       1.39681695       1.66686477
P        4.32048711       5.44147481       1.65742370
14
Lattice="5.384174346923828 0.0 -0.7687843441963196 -2.816737969099592 6.914688125008835 -1.7492926120758057 0.0 0.0 8.353055000305176" Properties=species:S:1:pos:R:3 pbc="T T T"
Tb       1.15779119       4.04555154       1.13542627
S       -2.34645645       5.97807132      -0.10539929
Ce      -0.64527861       1.73983731       6.39472563
S        0.41926799       4.62938695       6.83813225
S        3.59064419       4.05319564      -0.28514079
Ce      -0.47434353       5.25235000       4.42656084
Ce       2.87079892       0.50780867       1.19122685
S       -0.11474681       1.68276797       0.76030048
S        0.64446713       2.89849468       3.70282277
S        2.75900523       6.26739312       2.31235260
S        0.11959913       6.47822678       2.02826520
S        2.28782933       1.02506191       6.91527410
S        2.30367955       5.89130479       4.36677794
S        3.27240058       2.79789483       3.03790290
14
Lattice="19.302928924560547 0.0 36.504310607910156 9.34648188155296 20.469748747534755 38.867366790771484 0.0 0.0 47.65407180786133" Properties=species:S:1:pos:R:3 pbc="T T T"
Cu      16.62182359       8.84972577      66.29602407
S       13.35477442      15.97638867      51.82666680
S       23.78138727      18.38828138      70.04406095
S       18.97862498      18.57284837      62.67202735
S       23.12411206      20.36588231     111.54475542
Rb      23.25823810      12.42223963      96.57913800
Rb      10.92489762       3.74121844      31.70004503
S       13.31899090      19.06263239      60.05566929
Al       5.52421429       6.47898738      39.14379103
Rb      21.95369346       7.77906262      65.06088670
Rb       8.98600557      10.29406836      65.11482002
Rb      11.77094541      11.98016488      56.47581603
Ba      24.83208603      15.36728697     108.80284545
S        9.31047771       5.67720080      44.56468757
4
Lattice="3.7190773487091064 0.0 0.00468603428453207 0.005936814401054982 3.7176792902446074 0.0030861608684062958 0.0 0.0 9.014970779418945" Properties=species:S:1:pos:R:3 pbc="T T T"
Tb       2.78379434       1.55890277       1.98368005
Pr       0.92872622       3.41800367       4.47723991
Hg       0.92948399       3.41778097       0.14335762
Nd       2.78441211       1.55887928       7.07996323
4
Lattice="4.269010066986084 0.0 2.4577596187591553 1.4222297207506784 4.026595239922358 2.457792282104492 0.0 0.0 4.927300930023193" Properties=species:S:1:pos:R:3 pbc="T T T"
Y        2.61800751       1.19441409       2.39320090
Cu       4.04072362       2.20340437       4.85306640
Ce       1.19315835       3.20807363       4.85512448
Rh       1.19382570       0.18911285       4.85911615
6
Lattice="4.497303485870361 0.0 1.8451040983200073 1.6647570408957932 5.6309724348742005 2.347126007080078 0.0 0.0 6.400531768798828" Properties=species:S:1:pos:R:3 pbc="T T T"
Cd       4.22488843       0.74754552       5.94790943
Cd       3.31993950       2.30075141       8.15273423
Tb       1.99998957       3.05478621       4.96313090
Pb       4.17800586       5.43952117       6.06975488
Pb       5.21666495       3.67006901       3.53744297
Tb       1.15344014       0.21455908       0.63825523
6
Lattice="6.508985996246338 0.0 9.505874633789062 3.964349204934534 5.025734415367106 9.714203834533691 0.0 0.0 11.822135925292969" Properties=species:S:1:pos:R:3 pbc="T T T"
Co       2.88536363       1.47249232      11.60883404
As       6.30951223       4.67651792      22.45947890
Mn       4.50754428       0.86274201      10.18599962
Co       7.91464696       4.06111707      20.91283373
As       3.18502122       3.31901644      10.44800951
As       7.41401549       2.12528553      21.99328439
13
Lattice="5.5081892013549805 0.0 1.9759856462478638 2.863177062073248 7.137285770094636 1.3068758249282837 0.0 0.0 7.568137168884277" Properties=species:S:1:pos:R:3 pbc="T T T"
Ba       5.35592525       0.81633846       6.82083751
Cd       4.11296850       4.41258830       6.43247977
Li       5.97975553       3.42699424       4.34841115
Li       6.86554654       4.46286049       7.38796033
Li       6.06586117       6.34130168       5.54339366
Li       3.16722657       2.67759505       4.23437244
Li       5.48389568       0.80965199       2.97716176
Cd       2.04857672       2.42017493       7.28396633
Cd       5.00689580       6.40892614       8.53629557
Cd       4.61338088       3.33168524       9.31165911
Cd       3.85242989       5.56803860       3.67412155
Li       2.69568448       0.93909616       1.96358076
Li       2.25269919       5.08334159       1.13595920
10
Lattice="3.364624500274658 0.0 -0.5432406067848206 0.36401696281964757 6.326639288707043 -1.3317184448242188 0.0 0.0 6.70432710647583" Properties=species:S:1:pos:R:3 pbc="T T T"
Li       2.83602270       5.63525742       0.60781496
Li       2.51805631       4.15137322       5.19395164
Bi       3.18576506       2.22042609       2.80565857
F        2.29172470       2.35667654       5.85595398
Bi       0.65599844       0.52672492      -0.08517983
Li       1.18770541       3.68068327       1.09941238
O        0.97282018       4.93161952      -0.44626067
N        1.23761802       1.43570581       1.84529235
F        2.15957654       5.11336825       2.81266147
N        3.06643307       4.28250156       2.08927735
10
Lattice="47.215824127197266 0.0 666.56005859375 -6.649153356127615 16.850932654417832 739.4744873046875 0.0 0.0 794.828125" Properties=species:S:1:pos:R:3 pbc="T T T"
Rb      40.48385138       6.93220787    1301.69482120
Pr      19.02843643       6.09539713    1304.07918942
Rb      26.28203061       3.88020698     646.48272445
Rb       4.77420745      10.88965023    1014.52648606
Li       0.05066186      14.67152655     999.97801266
Pd      39.67646599      11.88958156    1242.05018318
Rb      26.85097415       5.30109736     643.15001417
Rb      39.26894351      14.73626174    1800.63025395
K       29.22877496      14.76455351    1501.30894624
Sm       0.95328056      16.24267575    1251.60384114
7
Lattice="4.950490474700928 0.0 1.7663605213165283 1.9646363240265703 6.738232799918793 2.3577651977539062 0.0 0.0 7.8618879318237305" Properties=species:S:1:pos:R:3 pbc="T T T"
K        5.95584779       3.68434131       6.72957724
Cs       6.84725395       6.53538597       4.23385286
Cs       3.45343115       0.67823309       5.90052884
P        2.95111843       4.86711105       7.33421332
K        4.63083528       3.46552647       2.60948801
P        1.75461188       1.17924394       2.83377896
P        3.63140345       5.72569713       5.42967920
15
Lattice="7.056096076965332 0.0 -1.6097221374511719 2.950658817706994 7.478626885660073 1.3839269876480103 0.0 0.0 13.756124496459961" Properties=species:S:1:pos:R:3 pbc="T T T"
Ba       3.77743744       7.38017168       2.58515312
Ba       4.89586472       0.82167290       3.07029055
I        7.08466346       3.34976099      12.31521123
Ba       6.79141554       2.34088505       6.87139448
Ba       3.57330435       3.23406486      13.32680941
Pt       7.03827782       5.24304995       5.60207593
Pt       3.78391418       0.22803640       0.21937814
In       4.48476318       4.36856023       4.52428168
Na       2.11243908       1.65890699       5.33321193
Ba       6.91756647       6.21609071       8.41929470
I        3.46143550       2.38331302       9.45047755
I        9.72075510       6.80188651      10.69878069
Ba       7.41958887       4.68389416       2.45850372
Ba       3.07575270       5.23682891       7.59877817
Ba       6.33220590       6.81606304      12.53538246
9
Lattice="3.9575517177581787 0.0 -0.0006332976627163589 -1.9796316351313412 7.025644907246294 -2.224247932434082 0.0 0.0 8.22553825378418" Properties=species:S:1:pos:R:3 pbc="T T T"
Cs      -0.25735408       3.38655887       1.54254204
Cu      -0.25803623       5.86265580       4.45669747
Cu       1.72028759       4.11937860       4.76517897
Cs       1.72063121       6.59685535      -0.54577447
Cr      -0.25830521       1.47942140       5.72289809
Se       1.72003193       1.75547027       4.04152706
Se       1.72203147       1.20035222       7.40416544
Se      -0.25827476       4.05380145       6.18953297
Se       1.72111031       5.92862240       3.03097917
8
Lattice="4.760048866271973 0.0 0.06288397312164307 0.30334993312358366 5.270080515979213 2.4623594284057617 0.0 0.0 9.360116004943848" Properties=species:S:1:pos:R:3 pbc="T T T"
S        0.20129898       2.73420458       3.77945214
Ba       2.67577905       0.79916709       4.61728829
H        2.74766683       0.64370863       2.07379431
Br       2.80685495       0.25648984       7.93318720
Ba       0.40271240       0.67601168       0.79778307
H        0.95258233       3.16996398       4.92094888
H        1.66814090       4.23164049       9.17280056
Br       0.81587685       3.56820379       8.08229798
18
Lattice="3.9938745498657227 0.0 0.0015471731312572956 -1.9873971218061113 8.202489579320456 0.023868530988693237 0.0 0.0 12.192535400390625" Properties=species:S:1:pos:R:3 pbc="T T T"
Pd       0.03705426       5.27871151       5.30080753
Ce       2.03926554       7.81652334       4.59742148
Ce       2.04288896       7.11756406       0.59417990
S        0.04164219       1.97880142       8.49676083
Pd       0.04927321       5.46253056      11.27556443
S        2.03266007       0.12258633       6.56572274
Ce       2.03828134       2.96815440       2.38572417
Ce       2.03432227       3.12457148       6.63938055
Ce       2.04416569       7.27049303       8.52161026
S        0.04502403       8.15672989       2.59544168
Pb       2.03790117       2.49755332      10.66283656
S        0.03647509       2.37468892       4.48963908
S        2.04379356       5.24682894      10.27425718
S        0.04030260       1.83962112       0.68112224
S        0.04257142       5.03640163       1.41452027
S        0.04567056       7.85839476      10.60747836
S        0.04366537       5.09809136       7.62078231
S        2.03766670       5.10932448       4.15531683
12
Lattice="3.525803804397583 0.0 0.002356516430154443 0.01173238283819429 9.792124395406026 -5.634023666381836 0.0 0.0 11.299135208129883" Properties=species:S:1:pos:R:3 pbc="T T T"
Er       2.27399476       8.32530908       5.34864725
Er       2.26680525       3.42874027       8.16371238
Nd       2.27027319       5.06011042       5.34322043
Nd       2.26616347       1.79737654      -0.31407433
La       2.27336054       8.32480246      -0.30373707
Er       2.26710848       3.43117411       2.51575712
Er       0.50801013       6.59058569      -3.30949398
Er       0.50836965       6.59242712       2.69076782
Er       0.50267216       1.99870258       5.33356237
Er       0.50122800       0.26612075       8.32853537
Er       0.50608838       4.85776969      -0.30729642
Er       0.50136081       0.26453771       2.33678829
8
Lattice="5.430724620819092 0.0 0.04251297563314438 -0.48097889505589503 5.975235591854784 0.5496456027030945 0.0 0.0 6.869785785675049" Properties=species:S:1:pos:R:3 pbc="T T T"
Na       3.15406712       1.56728266       4.82396580
Se       0.23594908       4.16075154       5.25248099
Na       0.34325866       5.95469881       3.12569777
Na       3.38224529       4.35190248       1.39824845
Na       0.62696595       2.32138832       0.35183088
Se       3.37095327       1.25731048       1.45216963
Se       5.09853534       2.68308290       3.10184899
Se       1.17595777       5.72385440       7.08570168
10
Lattice="2.934321641921997 0.0 -0.0023371318820863962 -0.007055799647693715 7.986240607943517 -0.0190020389854908 0.0 0.0 7.993879318237305" Properties=species:S:1:pos:R:3 pbc="T T T"
In       2.35276543       1.64717948       5.31277003
Zn       0.88202711       4.62337352       4.28836355
Ag       2.35024950       4.29453477       6.65331317
In       2.34950882       5.64443387       1.30771417
Zn       0.88694694       0.62848339       2.33976315
Zn       0.88322761       6.66576840       6.32876148
Ag       2.35116170       2.99301494       2.66123484
Ag       2.34854769       6.98985222       3.95646632
Zn       0.88434490       2.67588406       0.29789310
Ag       2.35451011       0.31421765       7.96772603
12
Lattice="130.48049926757812 0.0 1483.5130615234375 -22.697952215547097 352.4382789246418 1511.126220703125 0.0 0.0 1146.5592041015625" Properties=species:S:1:pos:R:3 pbc="T T T"
Rb      91.83531540     326.15880502    3171.05053211
Sm      90.88390838     346.90160094    3343.87332371
F       80.44124559     217.74741744    2581.92598776
Se      41.67493159     100.14943486    1457.32067197
Rb      95.73072128      35.11600370    1540.58407750
Mg     -18.87423857     300.24474715    2033.78624250
Ta      -7.65528255     298.18953137    2355.83775839
Ga      61.74785259      84.28017977    1724.11174902
Sm      19.11882736      86.80321001    1684.47270585
Se      18.02392909     351.14561574    2936.52541312
Sr     108.20457492       5.10850530    1686.03558349
Tb      74.10272410     273.83145892    2443.80161913
14
Lattice="5.616370677947998 0.0 751.9149780273438 1.428305685635565 13.886721644384616 688.26123046875 0.0 0.0 628.7753295898438" Properties=species:S:1:pos:R:3 pbc="T T T"
Rb       5.22495816       6.18948634    1302.80689116
Rb       1.20704516       7.04233213     678.61670031
Rb       5.38386889      13.59860299    1307.86060110
Rb       2.83715240       0.25527909     762.36010418
Ag       3.59567054       5.74073092    1276.32328233
Sn       5.26991598       7.30054221    1162.29008181
Rb       2.10448849       3.89537351     631.75409833
Rb       1.18330779       1.29713167     380.87254582
Rb       0.51248404       3.06834305     360.45058209
Rb       1.88829401       7.33227093    1117.44701191
Rb       3.62758118       9.36464184    1331.07251596
Rb       2.49523710       8.29702850     858.25695677
Rb       4.48880512       2.67145462    1018.23717040
Cs       2.91062878       0.44108676    1019.43603575
4
Lattice="4.701021671295166 0.0 499.828369140625 3.160775670816405 12.107070088736423 614.0723266601562 0.0 0.0 499.8807678222656" Properties=species:S:1:pos:R:3 pbc="T T T"
Sb       6.55193900      11.01865800    1219.95941834
Rb       1.65528099       3.46910143     413.45427890
Rb       5.99871303       9.40121770    1127.50582022
Sb       2.24512502       4.30481696     815.73166868
4
Lattice="3.1833465099334717 0.0 -0.0017366603715345263 -0.0012338800493408126 3.1832637779700472 -0.002212097169831395 0.0 0.0 6.70225715637207" Properties=species:S:1:pos:R:3 pbc="T T T"
Ga       1.89890366       1.20625417       4.64657622
Sn       1.89814574       1.20647407       1.29631509
Pd       0.30637003       2.79786689       3.19896276
Pd       0.30587257       2.79789061       6.09174952
12
Lattice="6.946714401245117 0.0 -1.0710879564285278 -3.7281069460433978 5.8632864921441765 -1.0712978839874268 0.0 0.0 7.717658996582031" Properties=species:S:1:pos:R:3 pbc="T T T"
K        1.99044550       0.78212979       3.02189177
Sn       3.59914019       3.71232471       5.80899845
Ho       0.04190742       5.66689950       5.80867731
S       -0.80244832       4.10485964       0.21290899
S        2.73485114       2.14037397       0.21969431
K       -1.58529207       2.74644972       3.02080648
Ho       0.21043728       1.75868896       6.87955510
S        4.63245956       1.35549395       4.75808159
S        6.29345046       0.20781849       0.21319777
S        1.05488324       3.32094655       4.75806814
K        1.83716301       4.68176822       1.95018208
S       -2.48459631       5.28768322       4.75365883
4
Lattice="3.7120542526245117 0.0 0.015950258821249008 0.02151418570214388 5.240955540829056 0.012053592130541801 0.0 0.0 5.240811824798584" Properties=species:S:1:pos:R:3 pbc="T T T"
Ho       2.80632599       1.91119806       4.88958687
In       0.95049938       1.91126725       2.26060740
Ho       2.81691910       4.53161445       2.27442659
Ag       0.96105185       4.53145763       4.88684615
8
Lattice="4.041818141937256 0.0 0.004205170087516308 0.008915307806993272 8.701626025228954 1.4157886505126953 0.0 0.0 7.4995880126953125" Properties=species:S:1:pos:R:3 pbc="T T T"
La       2.04301984       7.54714045       2.16770714
La       0.02081524       4.82545915       3.99796076
Os       0.02519245       8.55044882       4.16655911
La       0.01731786       1.42011281       5.83756407
La       2.03937114       1.98087487       2.56735870
Os       2.04048388       3.55650617       5.64286186
La       0.02161202       4.55307329       7.63134493
La       2.04426697       7.29030498       5.80871310
9
Lattice="5.636549472808838 0.0 2.2204596996307373 -0.5717293504740154 8.764697772109312 -0.9182788133621216 0.0 0.0 9.54251480102539" Properties=species:S:1:pos:R:3 pbc="T T T"
Rb       2.86915832       2.11593756       4.69533631
I        4.75178549       8.71479078       6.37361005
Rb       0.56788208       6.96878328       7.13561682
Rb       0.58898996       6.17215894       2.01583155
Ho       4.46019097       2.13057933       9.34142705
I        5.22044174       4.14150173       7.08038791
I        3.83279070       4.41929733       1.85844492
I        3.07061267       8.71654610       0.87416128
I        1.61923430       2.19041067       8.27220465
10
Lattice="6.1355767250061035 0.0 3.2944018840789795 2.181652091671139 5.73641825885565 3.295032024383545 0.0 0.0 7.366734027862549" Properties=species:S:1:pos:R:3 pbc="T T T"
Na       1.94442138       1.56831526       4.32349489
Li       4.37258493       3.23809923       7.16305059
Cl       1.89347522       2.64702718       7.03359428
Pb       0.27286091       0.41247819       7.44157264
Cl       3.90052945       5.42226750       5.57173363
Na       6.08955086       4.42185854      11.32963521
Cl       4.66739393       2.02112318       4.72697733
Cl       5.27626130       1.12630936       8.28903520
Cl       6.97413702       3.94720433       6.67892251
Cl       4.35001906       4.83614966       9.16362678
12
Lattice="6.127821922302246 0.0 -0.060381148010492325 0.02220245914865135 6.365210911765575 -2.5360519886016846 0.0 0.0 9.067790031433105" Properties=species:S:1:pos:R:3 pbc="T T T"
In       3.20177163       5.78917072      -2.18206828
Tb       2.20553390       2.01300362       2.38562444
Tm       2.11767051       5.17311259       1.02625172
Tb       4.17046492       6.26090126       3.64640684
Tm       0.12247756       0.89254316      -0.20346325
Tm       1.20744578       4.66723527       4.40382005
Tb       5.27754653       3.58425052       1.72766243
Tm       1.10765239       1.45304594       5.59831041
Tm       3.18979539       2.57654536      -0.90262694
Tm       5.17609070       0.36597227       2.90615302
Tm       4.27155799       3.09924530       5.00375982
In       0.13247549       4.03459904      -1.45690648
5
Lattice="3.5276689529418945 0.0 -1.0950392484664917 -0.3660405726286494 5.897484382243695 -1.153639316558838 0.0 0.0 6.275610446929932" Properties=species:S:1:pos:R:3 pbc="T T T"
Rb       2.56715067       2.50825689       2.05899101
Se      -0.01299788       1.43439899      -0.07139585
Se      -0.05420380       4.70559834      -0.19424367
Ni       1.42365445       5.85768909      -1.66707367
Se       0.68176280       5.42909299       2.19602040
12
Lattice="6.533061504364014 0.0 2.952834367752075 -7.167076026905872e-05 7.585265159268336 0.05298593267798424 0.0 0.0 7.221125602722168" Properties=species:S:1:pos:R:3 pbc="T T T"
Hg       3.78312558       1.18093433       3.09661717
Rb       0.15335951       4.83377673       0.70224391
S        4.67730852       7.28926459       4.89682342
S        1.59347764       2.19769592       2.51969271
Tl       6.24608132       0.77938783       6.48512288
Rb       2.16106057       1.03361957       6.62699993
S        3.23542574       5.98254282       8.69154201
Hg       2.75948140       4.97058870       3.70157717
Tl       4.84789190       4.55651415       7.35636584
S        5.55300269       2.23118762       8.55635250
S        4.07987223       3.50285043       5.21955320
S        0.52153022       6.00976253       4.66083000
6
Lattice="18.63511848449707 0.0 210.9193878173828 -9.584028675831632 8.500342429638254 227.2795867919922 0.0 0.0 172.06466674804688" Properties=species:S:1:pos:R:3 pbc="T T T"
Fe      -5.76054662       5.60274337     279.72944266
Ba       2.77514046       5.28589347     274.17666971
Cl      -2.89431098       7.62590116     271.93315783
Rb      13.59796644       2.39010800     342.47789940
Rb       7.27704468       5.41348867     416.16677326
Rb       2.30692249       3.25295131     255.01416360
12
Lattice="7.417313575744629 0.0 -3.3037936687469482 -1.4891235678075248 7.276150501732162 -3.308079719543457 0.0 0.0 9.953519821166992" Properties=species:S:1:pos:R:3 pbc="T T T"
Sr       3.88253538       3.48623435      -0.10760066
I        6.83113369       2.61242967       1.60880438
Sr       1.66624304       5.30647764       4.87143328
Sr       6.10151727       1.67269106       4.87251354
Tl      -0.57208854       7.12561978      -0.11116177
I        3.19138488       2.67600940       3.19385991
I        1.67915485       0.77889897      -0.19471482
I        6.08884535       6.16691462       0.00061347
I        5.29928009       0.78366107      -1.80252959
I        4.57700396       4.33501455      -3.42323884
I        2.45663338       6.22732840       1.57598803
I        0.95242092       4.32717599      -1.80598662
12
Lattice="5.151907920837402 0.0 42.507102966308594 16.299962619343656 16.48678075075011 53.30903244018555 0.0 0.0 70.73388671875" Properties=species:S:1:pos:R:3 pbc="T T T"
O        7.04789028       6.75649637      95.36095322
Rb      10.24523846      10.28748804      34.17139748
Ti       5.86379252       5.58334981      70.97459219
Dy      17.96443698      14.62687531     113.26084700
Rb       4.20882544       2.33711063      76.39158992
Ti      12.73497877       9.80678326      65.86002004
Ti      18.80345302      15.64284081     139.10331497
Rb       8.88510854       5.85433458      88.78259847
Rb       7.04468276       5.49480023      43.04359886
O       17.31246521      14.35618879     135.35947598
Cl      13.02672751      12.63461349      98.27428421
Rb      14.48359544      14.27200775     111.51227086
12
Lattice="4.597894191741943 0.0 -0.017950402572751045 -0.03282036025352581 7.509436411779734 -0.036575037986040115 0.0 0.0 8.042989730834961" Properties=species:S:1:pos:R:3 pbc="T T T"
K        4.44086727       4.66395526       5.02001987
K        4.44568243       3.41580895       1.00371629
As       4.45709218       1.38322680       3.61710517
Zn       4.43397354       6.53472975       2.23721294
K        2.16031993       0.91038139       1.05838025
K        2.13200147       7.17700680       5.05164936
Zn       2.15336584       2.78653394       3.82356965
Zn       4.45277965       1.54525355       6.28409148
As       2.13933165       5.14112619       2.45886014
Zn       2.13774211       5.30143540       7.83335382
As       4.43170898       6.69858662       7.61230531
As       2.14819246       2.94411772       6.49046095
4
Lattice="6.379512786865234 0.0 3.7030131816864014 2.122226859840779 6.017073444648005 3.715852737426758 0.0 0.0 7.389143466949463" Properties=species:S:1:pos:R:3 pbc="T T T"
K        4.48058971       4.01551150       5.38559134
K        6.62174096       1.01876929       9.08639222
Eu       6.61084001       5.52845084       9.09235081
K        2.35678155       2.51829573       9.07431306
12
Lattice="6.6858696937561035 0.0 2.008868932723999 3.3217848593074 6.087102790076815 1.0030678510665894 0.0 0.0 7.820732593536377" Properties=species:S:1:pos:R:3 pbc="T T T"
La       6.04174771       2.83946954       4.40167566
La       9.21179123       4.77123157       5.36393941
Cl       7.54178067       2.75876141       7.22206352
La       5.85646697       4.76474399       9.07671615
Cl       4.20628083       0.68936046       6.21519874
Ru       0.86328364       0.71194276       1.30248424
C        7.53400329       4.76783921       3.31086437
La       5.70705699       0.60943293       9.03488267
Cl       4.19266017       4.76836130       6.21748815
La       2.35617943       2.83731240       8.03145831
La       2.70639302       0.61551592       3.39608551
Ru       4.19983057       2.73747442       2.30806061
10
Lattice="36.9747314453125 0.0 41.49848937988281 9.91209497742119 3.8192396671481745 62.842227935791016 0.0 0.0 76.04656219482422" Properties=species:S:1:pos:R:3 pbc="T T T"
Mg      17.72105712       0.85140067     104.97713209
Cs      33.62634381       1.51246033      92.87257939
Ir      31.25127996       2.29255145     102.85798325
Ag      19.10940599       0.03747712      27.26079255
Ag      10.10865204       0.14430619      41.85477554
Rb      36.73190392       0.10972214     110.22409532
O       17.96841579       3.15044835     103.70402221
Br      31.03519766       0.66105169      79.22238373
Rb       8.98626190       1.72413880     104.04923856
Rb       9.96015447       1.41414605      55.96354673
4
Lattice="3.5498106479644775 0.0 0.5568285584449768 1.7350835746989763 3.0972224713284846 0.5570498108863831 0.0 0.0 11.709623336791992" Properties=species:S:1:pos:R:3 pbc="T T T"
Ho       2.22003547       0.36096124       2.15196824
Er       2.62700169       2.68045785      11.29033600
Pr       3.09839981       0.87736175       8.21992004
Er       1.76274198       2.17381272       5.11362705
15
Lattice="8.15934944152832 0.0 4.569407939910889 2.796188012294124 7.662582751569302 4.571962833404541 0.0 0.0 9.562070846557617" Properties=species:S:1:pos:R:3 pbc="T T T"
Cl       1.79551998       2.34870301       8.22767202
Cl       7.91888823       5.41636004       6.86796534
Cl       3.57696917       5.84671469       5.06112281
Rb       4.85435583       3.88724345      12.33812414
Cs       4.85092295       3.88168236       7.53975422
Cl       7.84605498       5.36543697      12.80672717
Cl       6.13600435       1.92675828      10.05070953
Cl       6.81497266       2.40009239       5.07121645
Cl       1.86971177       2.40170738       2.30250121
Rb       3.46020296       0.05520674      10.04950018
Cs       7.53784497       0.05387111       7.55045342
Rb       7.54068560       0.05228103      12.33375106
Cs       8.94129324       3.88469127       9.83520758
Zn       8.93673025       3.88374448      14.61708039
Cl       2.89667293       5.36288662      10.03516625
4
Lattice="4.990584373474121 0.0 2.8873164653778076 1.665985551147883 4.704617710197373 2.887573480606079 0.0 0.0 5.762639045715332" Properties=species:S:1:pos:R:3 pbc="T T T"
Cd       3.14074320       4.69987978       5.38702525
Eu       1.47678629       3.52330585       2.49832435
Eu       3.14055582       1.17168030       5.38077940
La       4.80428326       2.34706337       8.26574647
10
Lattice="5.11850118637085 0.0 -0.39046207070350647 -2.2386233240410442 8.424950586059612 -0.17942912876605988 0.0 0.0 18.181276321411133" Properties=species:S:1:pos:R:3 pbc="T T T"
Cs       2.09110272       7.43697577       1.99198950
Cs       2.87156378       2.90718744       9.44307287
Cs       0.01448443       3.16819736      -0.01829561
Cs      -1.89058196       7.64349011      11.49371113
Na      -0.04459580       0.82855588       6.68208976
K        0.17350119       6.17654166       6.75439902
K        2.46774627       3.08959353       4.28728874
K        0.92503053       4.43964624      13.95052276
Na      -1.37821552       7.20831139      16.36000034
Na       3.15763181       0.92856523      14.69007371
12
Lattice="161.75674438476562 0.0 1359.0675048828125 97.93455417081987 61.452942269310704 1157.2999267578125 0.0 0.0 1259.055908203125" Properties=species:S:1:pos:R:3 pbc="T T T"
Ce     152.14326057      12.83080953    2453.86438380
Rb      96.01133688      59.75298098    2194.56794578
Al     140.59755285      15.33105167    1721.10535014
Rb      55.08759487      31.19176688     909.20794490
Ba      93.22843512      20.04573051    2108.51755712
Rb     172.76228013      35.12819894    2103.52242868
La     196.83355370      24.60676066    2932.71097840
Bi      70.61623802      39.52613566    1143.98562557
Sr     178.13718892      39.22732517    1736.08689196
Ru      44.50691302      10.07699622    1156.52575766
Rh     104.87034147      17.18562499    1110.08514961
Nd     124.57009096      27.96293014    1666.35360897
8
Lattice="26.32953453063965 0.0 285.8556823730469 22.14051213418861 1.62760693581051 286.4728088378906 0.0 0.0 272.2623596191406" Properties=species:S:1:pos:R:3 pbc="T T T"
Rb      29.66533083       0.41586141     388.13995282
Rb      19.81232191       0.68640565     449.78580292
Rb      28.15855606       0.35980494     503.74110328
Rb       8.05895723       0.41981765     129.22141195
Rb      21.31216903       0.69869743     445.75262302
Zn      31.10963845       0.88698993     494.93176874
Ba      25.96918611       0.13070548     366.47721394
Tl      28.09118159       1.55497374     370.89354262
5
Lattice="3.5798606872558594 0.0 1.6195225715637207 1.8696741814524382 4.421049116070646 0.6381987929344177 0.0 0.0 4.783877372741699" Properties=species:S:1:pos:R:3 pbc="T T T"
Pt       3.13657942       2.01090109       2.12921103
Zn       2.04906567       1.20104895       4.54753956
Pt       4.19003090       3.00172748       4.57904926
Pt       0.93905460       0.29489684       2.22579633
Zn       1.70068770       3.81019828       5.32740896
10
Lattice="4.918613433837891 0.0 0.0032281975727528334 0.0029952499535338883 5.201421828934721 -1.265919804573059 0.0 0.0 8.809568405151367" Properties=species:S:1:pos:R:3 pbc="T T T"
Sm       2.32117155       3.79101355      -0.63221678
Ag       4.77716875       0.67976433       8.48961778
Ag       2.31815039       3.01100967       5.07519360
Ag       2.31546560       3.95581376       2.47864554
Ag       2.31659423       1.21767749       2.61106513
Ag       4.77344384       2.44762965       2.16507952
Ag       4.77716929       4.90478370       1.00521289
Ag       2.31858153       0.83003650       7.01383152
Sm       4.77947946       5.09464819       4.11073671
Ag       4.77827435       2.85781788       6.54209278
12
Lattice="39.26295852661133 0.0 172.6675262451172 13.935658766260985 30.73273078718274 166.8401641845703 0.0 0.0 169.6693115234375" Properties=species:S:1:pos:R:3 pbc="T T T"
Mg      32.46956171      18.19541817     373.23604390
Sr      28.49833199       9.09378900     288.60491931
Fe      48.65290555      21.62594873     442.50537805
K       26.74673491       7.48550071     242.49628086
Rb      30.33684849      22.99959454     294.13497353
V       43.54475423      20.66814291     394.57826422
Rb      32.71342049      11.16405974     262.11018962
Rb      32.16406940      26.80305852     345.99264836
Mn      15.39213481      17.98314395     243.71053494
Ir      22.39287202      19.88937305     203.73861732
Rb      10.27068341      22.56528255     286.07575332
Rb      31.06671213      19.50116963     361.42550090
16
Lattice="4.123255729675293 0.0 0.010788443498313427 -2.0444734238350306 9.042353603580331 0.49222174286842346 0.0 0.0 12.304366111755371" Properties=species:S:1:pos:R:3 pbc="T T T"
Tl       0.53075108       5.45812009       4.33230930
Hg       2.58317227       3.42138567       5.92242357
In      -1.52903297       7.68234281       6.39088652
Tl       0.52438413       5.17031263       7.81259014
Hg      -1.52433947       8.98327913      11.81249934
Tl       2.58606819       0.81188162       4.03614940
Hg      -1.52502412       7.73953306       3.12930800
Hg      -1.52580369       6.94125179       9.55427987
In       2.59653003       5.02102059       1.39069903
Hg       0.52864537       2.76906320       2.41924178
Hg       0.52959511       2.71328342       9.75383135
Hg       2.58780376       2.14427975      12.27042036
Hg       0.53148874       5.41141650      11.37642051
Ga       0.53757666       7.67093452       1.07460622
Hg       2.58311825       0.32499424       8.47068454
Ga       0.52012112       1.61505825       6.82608374
6
Lattice="3.7549641132354736 0.0 -0.0076174368150532246 -0.006458148520815721 3.7548858417846276 -0.00428386963903904 0.0 0.0 8.270478248596191" Properties=species:S:1:pos:R:3 pbc="T T T"
Er       2.12478599       2.04558095       7.04716095
O        2.12921959       0.16633886       5.90152111
Cl       2.12394156       2.04414119       3.28188568
Er       0.25231926       0.16747284       4.75722111
O        0.24878380       2.04492362       5.90439280
Cl       0.25290645       0.16972680       0.25847323
9
Lattice="44.79454040527344 0.0 543.3735961914062 45.289474916407464 16.957108478260988 495.28173828125 0.0 0.0 596.654052734375" Properties=species:S:1:pos:R:3 pbc="T T T"
Li      39.71535263       4.24536521     934.30978022
Rb      55.50623928       5.34321494     989.66139542
Li      34.46960063       0.57435572     726.79171465
Rb      32.77946430      11.88393987     635.75518721
Rb      71.26866095      12.00395811     891.25273115
Na      47.56895816      10.04061868     628.35628472
Rb      57.83110146       5.23756614     863.49028245
Rb      27.82808622      10.40061274     448.47101801
Zr      38.40808482       6.80901463     721.97111690
12
Lattice="3.9066388607025146 0.0 -0.0018853554502129555 -1.9630829809399737 7.4194351063106065 1.5239315032958984 0.0 0.0 10.117541313171387" Properties=species:S:1:pos:R:3 pbc="T T T"
Cu      -0.81341838       6.09181776      10.18142369
S        1.14486668       4.90536334      10.19343134
Sc       1.14238200       5.27713651       7.65427278
Eu       1.14732245       2.45424275       1.28504343
Pb       3.09937048       1.54410522       5.56504209
Sc       1.14450011       5.58382805       2.65374599
Cu      -0.80774176       6.79235829       4.45141217
S       -0.80755544       3.64810634       7.40106569
S       -0.80335447       3.67210787       2.90481777
S        1.14243599       6.25374042       5.22211309
S       -0.81405498       7.23966438       8.21179611
S       -0.81136040       7.22179464       2.16315429
8
Lattice="4.537171840667725 0.0 -0.856605589389801 -0.04893868069532192 5.380037890571995 -0.1690349280834198 0.0 0.0 12.584561347961426" Properties=species:S:1:pos:R:3 pbc="T T T"
Cs       0.32161771       1.13020251       4.74089110
Pb       1.90037989       0.64408581       0.67067414
Bi       0.98114835       1.54726560       8.34653767
Bi       2.28844529       3.92259294       2.77954839
Ca       3.67845855       1.61893091      10.20380816
Bi       4.20641557       3.10059357       0.48453303
Pb       1.30303498       4.35740709      10.12778161
Pb       3.11954566       3.69682121       7.27150196
3
Lattice="2.885988235473633 0.0 0.0006232681917026639 0.0023409142486021115 3.813414093587626 -2.1993567943573 0.0 0.0 4.400322437286377" Properties=species:S:1:pos:R:3 pbc="T T T"
Ta       0.09444997       0.64610704       0.53914707
Al       1.53582570       3.18979743       0.53875113
Pd       1.53812097       1.91819715       2.73869159
18
Lattice="6.908441543579102 0.0 0.006867287680506706 -3.450540781783943 5.984820221086456 0.008174070157110691 0.0 0.0 12.835692405700684" Properties=species:S:1:pos:R:3 pbc="T T T"
Pr      -1.61900012       5.91712024       9.74225787
Sr       5.28773625       1.92550666       0.11483246
Pr       1.83249714       3.92211465       3.32535388
Sr       5.28628930       1.92588443       6.53216648
Li      -1.61783690       5.91438168       3.32577890
Cl      -0.33194133       3.97473773       8.22644284
Cl       4.16200961       4.06522089       4.84458574
Cl       0.79711496       2.02009018      11.25452883
Cl       2.96416622       5.77117306       8.23246569
Cl       2.87261740       2.02053127       8.22307738
Cl       2.87305614       1.83333940       1.80518521
Cl       3.12175463       5.86589481       1.81645837
Cl      -0.49125525       4.06423242       1.80872368
Cl       0.79201399       1.83407978       4.83319581
Li       1.83398107       3.92059216       9.74215658
Cl       0.54881180       5.86480502       4.84309318
Cl       4.00089211       3.97187717      11.26195462
Cl       0.70701132       5.77073964      11.26016220
4
Lattice="10.117901802062988 0.0 38.42158508300781 7.198484102809288 2.847455636340756 40.771263122558594 0.0 0.0 45.117332458496094" Properties=species:S:1:pos:R:3 pbc="T T T"
I        8.32729753       1.44264363      59.88423945
Rb       1.99611948       0.36458958      31.52181926
I        6.93132222       1.45973222      38.69314949
Rb      14.17839370       2.22040839      64.98598138
4
Lattice="4.426042556762695 0.0 2.5583794116973877 1.4785201659274203 4.173898408462775 2.55771803855896 0.0 0.0 5.11331033706665" Properties=species:S:1:pos:R:3 pbc="T T T"
Hg       0.72178975       0.53821512       2.48271514
Na       5.15094959       3.66858656       5.04338651
Hg       3.67331160       2.62477187       7.59663275
Ga       2.19691888       1.57988902       5.04008470
12
Lattice="5.518444538116455 0.0 0.29024648666381836 0.08210067361264797 5.994896441019078 0.18554805219173431 0.0 0.0 5.992043495178223" Properties=species:S:1:pos:R:3 pbc="T T T"
Pd       3.28895906       1.10106172       1.05605214
Pd       4.77908735       5.49652211       5.01346066
Pd       2.75746377       3.77357489       6.04729770
Pd       0.60128176       3.65021640       2.01781266
Pd       3.32420048       3.63846724       2.99939088
Pd       1.90874119       0.42116535       4.58184879
Pd       0.25526204       0.63512711       2.13679821
S        4.38454503       4.94013985       1.30564780
S        1.22856690       1.94139293       0.41092550
Pd       5.24070296       2.44279434       4.92291051
S        1.29346102       4.26547559       4.18234573
S        3.76628843       1.34777817       3.46589216
16
Lattice="5.350276947021484 0.0 -1.0049688816070557 -0.6018762441944437 5.250443213918805 -0.015892045572400093 0.0 0.0 7.267838954925537" Properties=species:S:1:pos:R:3 pbc="T T T"
Si       2.90865188       4.27817110       1.77485669
Li       2.73661633       1.72079707       3.48157256
O        0.80747879       1.66435937       7.06906842
Li       0.54243524       4.96598689       3.90565770
H        1.71807054       1.49471062       0.05342696
O        2.30553627       4.88941910       0.32391474
Si       0.36112916       2.39529008       5.61143593
H        1.57342021       4.49690807      -0.20073954
Pb       3.46562381       4.64547238       5.12532126
O        0.99644362       1.61635115       4.34127926
Pb      -0.19281796       2.05289718       2.24516068
O        0.75326694       3.97256463       5.60867472
O        2.27084777       5.05927221       3.05598795
O        2.64538695       2.68049091       1.86112781
O        4.51926466       4.56429576       1.68934102
O        4.08707824       2.21199730       4.68733131
10
Lattice="5.86871862411499 0.0 -0.0035430605057626963 -0.0007172399978208854 7.946062532479531 -0.018540797755122185 0.0 0.0 7.948836326599121" Properties=species:S:1:pos:R:3 pbc="T T T"
Cd       0.21195875       4.72630470       2.94500857
Cd       0.20903607       0.75853898       1.14621631
Rb       3.14899469       5.07477273       5.45903120
Rb       3.14314396       1.10177249       6.57541841
Rb       3.14314574       6.18204089       1.47752491
Rb       3.14584670       2.21221463       2.60500455
Cd       0.20739209       6.52449392       6.91522604
Cd       0.20949170       2.56160314       5.11873891
Ag       0.21176260       7.61755341       4.02456005
Ag       0.21065900       3.64524940       0.05980406
4
Lattice="3.165950059890747 0.0 -0.00434715673327446 -0.006099636770026655 3.1658643136198754 -0.005172425415366888 0.0 0.0 6.585816383361816" Properties=species:S:1:pos:R:3 pbc="T T T"
Mo       2.22485701       2.87312612       2.73802370
W        0.64559754       1.29100952       1.20063565
Ta       0.64515354       1.29030963       4.39079099
Ti       2.22606080       2.87281080       6.15074675
5
Lattice="4.087436676025391 0.0 0.0050590489991009235 -0.00341605289134754 4.089370254414802 0.006316248327493668 0.0 0.0 4.102398872375488" Properties=species:S:1:pos:R:3 pbc="T T T"
Nb       2.96102659       3.07246590       1.08781114
O        2.95710061       3.06736503       3.09201733
Sr       0.91544549       1.04297550       3.25838958
O        0.91549067       3.06616361       0.99170645
O        2.96110159       1.02599277       0.98890013
12
Lattice="5.119159698486328 0.0 2.3800504207611084 2.5108869105953593 4.548440321304994 2.63655424118042 0.0 0.0 7.514215469360352" Properties=species:S:1:pos:R:3 pbc="T T T"
Sb       1.56174995       1.89074701       4.79721145
Bi       3.42547475       2.86367629       7.58157555
O        2.65096734       0.91521496       6.55438891
O        4.17492154       3.88391001      10.54206519
C        5.22467425       4.50374814      10.17414474
O        6.35354391       4.35416095      10.68239926
O        2.66403103       0.63140625       3.94474316
Bi       5.30520204       1.03690620       3.82512290
O        2.52777955       3.52440946       5.19420203
O        5.33982186       2.19806764       8.56441696
O        5.22792631       1.95048624       5.85800624
O        2.15643465       1.97520398       9.01494653
8
Lattice="4.9041290283203125 0.0 -0.0027245336677879095 -0.00885380948044854 6.56781315076705 -2.1608946323394775 0.0 0.0 6.974416732788086" Properties=species:S:1:pos:R:3 pbc="T T T"
Tl       2.76355937       1.83291557       2.81252402
Cd       0.31389371       0.12634671       5.01160737
Cd       2.75947785       5.11409652       5.21959716
Cd       2.75822630       5.11336133       1.73345198
Tl       0.31328901       0.11264864       1.56031155
Cd       0.30942239       3.53605811       0.61515830
Tl       0.30969771       3.55088198       4.05632443
Tl       2.76401318       1.82890395       6.30144444
4
Lattice="17.726831436157227 0.0 122.57897186279297 -0.02350449471546194 0.6451037795319238 116.8524169921875 0.0 0.0 116.83861541748047" Properties=species:S:1:pos:R:3 pbc="T T T"
Rb      15.45183887       0.13440138     141.07942046
Ce       2.25846162       0.20090177     112.56596636
H        1.14020679       0.58174031     211.46049723
Cd      13.97522969       0.58311401     290.95165696
12
Lattice="6.082457542419434 0.0 -0.5242058634757996 -3.084399786772991 5.2408512457405845 -0.5250438451766968 0.0 0.0 11.699315071105957" Properties=species:S:1:pos:R:3 pbc="T T T"
Sm       4.39458495       1.86043560       8.52754697
Sm       1.36353992       0.11637504       9.05231913
Dy       2.06898169       1.41357483       5.77104905
Dy      -0.93319344       3.12754713       5.76847089
Tm       2.86436221       2.73503501       2.67850426
Zr      -0.16160009       0.98846275       3.20378015
Dy       3.60539127       4.09098324      -0.41220745
Dy       3.68924155       0.56535837       0.11194349
Tm      -0.19216213       4.48343288       2.67790008
Sm       1.33663615       3.60750633       8.52778987
Dy       2.09451629       4.93635412       5.23541577
Dy       0.58077157       2.28239772       0.12003893
14
Lattice="46.81388854980469 0.0 1262.5018310546875 43.43530070921043 38.46882478040645 1478.38037109375 0.0 0.0 1140.618408203125" Properties=species:S:1:pos:R:3 pbc="T T T"
In      16.76912637       2.10374265     715.23484450
Mg      37.63514477       9.00374617    2103.10642790
Rb      42.12734679      26.83490546    1887.80863818
H       33.34710172       9.24199954     982.65077796
Tb      75.42336583      30.29428298    2865.56299409
Dy      55.27419459      23.48581055    1752.09408594
O       64.83538292      27.12827778    2181.01965374
Rb      76.76134215      34.68747306    3304.69873000
Rb      17.70352365       1.35937362     987.28434292
Hg      72.13801869      26.17022446    2890.82676499
Rb      34.89412663       6.14834401    1887.16530204
Cu      47.33690875      15.13824037    1417.47537612
Rb      24.02219353      15.35770039    1006.57555696
Ru      33.63991887       2.05727231    1247.48650324
5
Lattice="3.341320276260376 0.0 1.109606146812439 1.0318100072481111 4.841338675064001 2.396791934967041 0.0 0.0 5.507791996002197" Properties=species:S:1:pos:R:3 pbc="T T T"
Dy       2.63555064       1.69984046       5.08267460
Dy       1.63652993       3.79284842       2.50935606
Be       3.57256653       1.65186689       2.29888532
Be       4.04007313       3.84178378       6.40219242
Rh       1.61806999       0.32877708       2.60086087
8
Lattice="4.561050891876221 0.0 0.0009507662616670132 0.004392232273945793 7.301809897239748 -2.573868751525879 0.0 0.0 7.731063365936279" Properties=species:S:1:pos:R:3 pbc="T T T"
Te       1.21240090       6.47220623      -0.43213793
Te       1.21125895       2.86045514       4.72941236
Sr       3.49173098       2.83221491       0.86318412
Te       1.21027268       4.82084073       2.25849827
Ag       3.49476407       6.51687522       3.44549127
Te       1.20817824       0.85289711       7.20661233
Te       3.49051636       0.91602261       3.56648278
Te       3.49578714       4.75437758       5.88938978
4
Lattice="3.869192361831665 0.0 -0.010497178882360458 -0.015435411296829429 5.644183033778374 -0.00773456459864974 0.0 0.0 5.358750820159912" Properties=species:S:1:pos:R:3 pbc="T T T"
Li       1.22574926       0.71939329       3.54007273
Y        3.15532978       3.53989270       3.53121938
Sr       3.16184600       0.71761439       0.85389472
In       1.22059731       3.54128211       0.85550413
4
Lattice="5.310976982116699 0.0 -0.0014766629319638014 -0.0012730490279561362 5.3125704193693135 -0.0018032595980912447 0.0 0.0 5.317944526672363" Properties=species:S:1:pos:R:3 pbc="T T T"
Ca       3.35295330       2.80155081       1.94389235
Li       0.69693324       2.80146816       4.60456466
Ca       0.69882129       0.14484547       1.94542845
Ca       3.35399540       0.14497501       4.60446690
5
Lattice="194.67430114746094 0.0 205.42471313476562 -50.80503179580412 129.69362437155567 -132.31398010253906 0.0 0.0 260.21319580078125" Properties=species:S:1:pos:R:3 pbc="T T T"
K       74.20340822      87.46456495     178.14193858
V      127.69900567      41.13164455     314.57366422
Rb       7.84789302       4.57022095     102.66258314
Ge      89.38113792      58.71512778     243.30396462
Tm     123.88341535      43.26916539     207.07708496
4
Lattice="16.978178024291992 0.0 252.33908081054688 17.066481838549407 1.071028670112897 252.35379028320312 0.0 0.0 266.9607238769531" Properties=species:S:1:pos:R:3 pbc="T T T"
Yb      23.72505823       1.02764213     393.27962373
La      15.61781590       0.48974982     305.07265670
La       8.68489568       0.20835437     270.79059985
Na       9.90601204       0.46010578     328.84878689
4
Lattice="3.656785488128662 0.0 -1.5984435081481934 -0.6995029091806376 3.586920895369335 -1.593367338180542 0.0 0.0 4.983295440673828" Properties=species:S:1:pos:R:3 pbc="T T T"
Cu       1.19908183       0.16347093       2.44244945
Mg       1.58839760       2.85192607      -1.64685714
Ag       0.10803801       1.06017846      -0.04608599
Ag       2.67725279       1.95664454       0.84676099
4
Lattice="4.458691120147705 0.0 2.5472724437713623 1.4785898345779598 4.206855866539644 2.5470077991485596 0.0 0.0 5.135689735412598" Properties=species:S:1:pos:R:3 pbc="T T T"
Pr       1.46321126       2.92311160       2.33863164
Li       4.43785869       1.87206888       7.46687451
Ho       2.95361867       0.81936954       4.90651594
Zn       2.94737682       3.97425210       4.89619705
20
Lattice="4.122352123260498 0.0 0.010568378493189812 0.02675802935874525 11.926542782969175 0.09589487314224243 0.0 0.0 11.942083358764648" Properties=species:S:1:pos:R:3 pbc="T T T"
Na       1.91935381       0.58745193       7.03764520
Na       1.93597238       8.54328485       3.14360476
Na       1.92524168       2.97670416       9.49351626
Mg       1.94005329      10.53246468      11.15276353
Na       1.93788818       9.01053671       6.64822595
Na       1.93241385       6.55366356       9.08359700
Tl       4.00313734      10.61183129       5.06522089
Na       1.93124502       6.10152495       0.72096046
Tl       3.99756642       8.39730760       0.14947887
Mg       1.92761161       4.51972440       5.08979704
Tl       3.99209092       5.46526058       2.99247855
Tl       3.99514609       6.70116847       6.08099093
Tl       3.97848532       0.70229013      10.10315609
Tl       3.98718845       3.56806223       7.21398545
Li       1.91823381       0.12406040       3.53112310
Na       1.92361124       2.54836786       1.14632520
Tl       4.00452929      11.54951974       1.46568976
Tl       3.98342084       2.24448255       4.10932335
Tl       4.00147539       9.54349922       8.96517620
Tl       3.98918966       4.55597381      11.06891790
6
Lattice="3.6310646533966064 0.0 -0.0005589766660705209 -1.8129423480005475 3.9142362392823737 -1.3385411500930786 0.0 0.0 5.283379077911377" Properties=species:S:1:pos:R:3 pbc="T T T"
Ni       2.58133620       1.12203169       2.70720975
Cu      -1.04618608       3.71614512       0.08126836
Fe       0.76752145       2.35434464       3.84767554
Ni      -1.04780225       3.65637359       2.62913266
Cu       0.76695768       2.47294538       1.36757401
Au       2.58115618       1.08456556       0.04978540
8
Lattice="5.395009994506836 0.0 -2.4322216510772705 -1.0988893031414695 5.277661592687215 -2.432011365890503 0.0 0.0 7.196383476257324" Properties=species:S:1:pos:R:3 pbc="T T T"
Cu       4.03194274       0.54226150      -0.55472729
Mg      -0.83983342       4.50141618       3.04488596
Se       2.98827179       2.43956365       0.58682435
Mg       2.40585338       1.86218745       3.04342919
Se       1.38898508       3.92598609       4.23830248
Ge       0.78501313       3.18196052      -0.55441586
Se      -0.39535418       5.18842726       0.58595229
Se       4.54861267       1.17863432       4.34116663
5
Lattice="3.5854828357696533 0.0 1.628065824508667 1.8271399275194253 4.445499518894428 0.7296809554100037 0.0 0.0 4.7552361488342285" Properties=species:S:1:pos:R:3 pbc="T T T"
Mg       1.28904883       0.66312137       0.96862536
Pd       2.02962588       4.21571676       4.08995168
Pd       2.37604933       1.55823603       3.33387343
Rh       4.53501842       3.27181955       3.33956704
Rh       3.45689097       2.49864169       5.70924033
11
Lattice="3.483595132827759 0.0 -0.3455294966697693 -0.09955155908642392 5.515700383470965 -0.8727423548698425 0.0 0.0 18.015003204345703" Properties=species:S:1:pos:R:3 pbc="T T T"
Nd       0.86629132       0.71715338      14.99118803
Ho       0.35901110       2.72171356       9.82817162
Tm       2.92162510       1.22645651      -0.00334952
Y        3.31102029       4.69744261       4.07571462
Tm       1.89512362       5.23198492       7.62885764
Tm       2.40234919       3.21460558      12.76083802
Ho       1.50123412       1.74471830       3.47176333
Ho       1.27842626       4.21628425       1.23029368
Ho       0.55537948       0.20557107      11.78612098
Y        0.05438451       2.22781208       6.69488774
Ho       0.97407694       3.72808974      16.13670390
5
Lattice="5.672086715698242 0.0 -0.005527225788682699 -0.004593936028415319 5.669598625579107 -0.005346373654901981 0.0 0.0 5.677861213684082" Properties=species:S:1:pos:R:3 pbc="T T T"
Eu       3.02321185       0.72456560       5.49808593
Cl       3.02318972       0.72558303       2.66125060
Cl       3.02058994       3.56359509       5.49621182
Cs       0.18556657       3.56811395       2.65790511
Cl       0.18955671       0.72500288       5.49725373
