12
Lattice="6.968173027038574 0.0 -0.11545833945274353 -1.6497045774903187 7.409788886048312 -1.3551318645477295 0.0 0.0 7.612297058105469" Properties=species:S:1:pos:R:3 pbc="T T T"
Te       1.07132036       5.35967108       3.82549655
Te       5.30231839       2.96682369       1.35568715
Te       2.78437039       0.67749351       6.43436055
Te       1.21784008       2.48962345       2.77992876
Te       2.54412516       3.71302006       0.21093889
Te      -0.18187200       1.42883884       5.30723106
Te       3.87088665       4.85502135       5.07229803
Te       5.22657936       5.78387459       2.65206978
Cl      -0.31127986       6.78926360       0.11403328
Te      -0.11087335       4.04148409       6.57498500
Te       5.35253706       0.13278201       0.09525944
Te       3.87312566       1.78482466       3.89492292
14
Lattice="7.575431823730469 0.0 -0.00715619558468461 -0.014303582169745125 7.35135737302794 -1.5695651769638062 0.0 0.0 10.114649772644043" Properties=species:S:1:pos:R:3 pbc="T T T"
Cs       6.62118916       4.53862193       7.44411699
Br       6.62893030       0.87658802       8.65721322
Br       4.84144025       1.72717615       5.63755068
Cs       2.83080568       5.75843466       3.58770916
Cs       2.83920454       1.85814766       8.76158258
Cs       6.62937229       0.63782255       2.49598266
Br       6.61710407       5.98072480       4.15686304
Br       2.83275511       5.50946053       7.55309947
Br       0.83751592       1.72865828       5.64527411
Be       2.83339477       5.66676668      -0.34683595
Br       4.62039721       4.66751638       0.45345319
Br       2.84180077       0.40824320       1.92079664
Be       6.62722493       0.71898221       6.43870512
Br       1.04737004       4.66129912       0.45377585
20
Lattice="8.378475189208984 0.0 -2.948681354522705 -4.124305892602649 7.217859264776657 -2.940885305404663 0.0 0.0 8.817014694213867" Properties=species:S:1:pos:R:3 pbc="T T T"
La       6.77691750       0.47448951      -1.45496625
La       5.22002081       3.21186687       0.76476929
La       1.56178750       0.48395296       3.71622285
La      -0.24364663       5.47748789       3.01908308
La       5.49692218       0.96545401       3.70923841
Co      -2.33677750       4.59219144       5.96111057
La       2.92640597       5.44816853      -1.44599102
La       0.00995380       3.20905131       5.93189044
Co      -3.33577920       6.31595425      -1.42949202
La      -2.04933139       4.08419569       0.09277622
Co       0.34954900       5.44335181       0.09004785
La       1.32358109       2.71106587       0.78184714
La      -0.45359931       6.81548632      -2.14182814
La       3.24647586       4.12342468       3.74105749
H        1.00190486       3.11031629       3.42542137
La      -3.62473928       6.82889191       4.43229659
Sb       3.39484112       1.84373855      -2.16548564
Co       7.05491024       0.93984324       1.51148153
Co      -0.49274750       2.66735143       2.91956876
Co       2.34905386       5.48157539       1.46159474
12
Lattice="6.284781455993652 0.0 -0.03764674440026283 -0.007215798239353357 7.296879538423613 -0.01566297560930252 0.0 0.0 8.907718658447266" Properties=species:S:1:pos:R:3 pbc="T T T"
Tb       3.08883299       3.69617963       0.80821075
La       6.21690512       1.87920173       0.79218372
La       6.19873244       5.52902936       0.78098198
La       2.02997568       5.53179593       6.72138875
La       5.16811203       0.06083357       6.72630508
Y        4.10001865       1.87492878       3.75781908
Tb       4.11459995       5.53130620       3.74707836
Tb       5.14381678       3.69217090       6.70824911
La       0.97185832       3.71177093       3.77502724
Y        2.03049334       1.88918441       6.74612235
Tb       0.99721734       0.07040279       3.78112968
Tb       3.05648146       0.06882666       0.82489208
12
Lattice="4.982779502868652 0.0 0.45787906646728516 -1.6997030018312678 4.971657330703804 0.3607531785964966 0.0 0.0 5.514360427856445" Properties=species:S:1:pos:R:3 pbc="T T T"
Se       2.01665557       1.00329217       0.69943055
H        2.03958845       0.89827397       3.12868825
Li      -0.24541169       1.65154896       3.54051121
O       -0.64940796       4.29792983       0.64024273
S        3.31655428       3.42891624       1.88979243
H        1.72785533       4.66965222       4.95187881
F        2.16983080       4.50085127       2.23972744
O        0.84386263       2.02493734       5.28143772
O        3.15538838       0.62569252       4.58984215
H        0.41186101       2.83264390       5.68888199
O        1.36105862       1.19993733       2.43428447
O        3.89599501       3.13760316       3.18454515
12
Lattice="6.149715423583984 0.0 0.03086143545806408 0.014892520991787063 6.608987718339689 -2.683180809020996 0.0 0.0 9.416865348815918" Properties=species:S:1:pos:R:3 pbc="T T T"
Tb       2.38956449       2.94393227       5.89780706
Tb       3.40564668       0.18494018       3.86926928
Y        4.44248754       4.04382274      -0.82465648
Y        2.40009306       6.24646201       4.55433986
Tb       5.47417576       4.59777027       5.24412085
Y        0.33724393       1.83504078       3.18114337
Ho       4.43582921       0.73551720       0.52153848
Ho       1.36346676       2.38873678      -0.17091846
Y        5.45999110       1.28754537       6.58357231
Y        3.41596581       3.49164040       2.53048321
Ho       1.37212641       5.69579904      -1.51273681
Tb       0.34602577       5.14396887       1.83539802
14
Lattice="8.379781723022461 0.0 -1.2219587564468384 -3.8432673615388078 6.7842365041607176 -6.769269943237305 0.0 0.0 10.447211265563965" Properties=species:S:1:pos:R:3 pbc="T T T"
Sn       2.34377120       0.59244947       3.13182337
Br       2.54620390       3.22777055       2.82195184
Br       3.01273317       3.35863605      -2.78244581
Br      -1.63557011       3.64709340       1.77815951
Br       4.69231562       0.21513020       1.69601800
Br      -2.09554566       4.71720367      -3.76899582
Br       4.98938836       0.38837743      -1.03130679
Br       2.81740152       3.38547786       0.06252327
Sn       5.14029949       3.03293785      -1.36434462
Br      -1.40969162       2.62540042      -2.01029982
Br       0.55874159       0.97707417       5.02098808
Br      -3.08165466       6.78039982      -5.56819056
Br       4.50867036       0.24114553       4.53696079
Br      -2.58389665       5.68048977      -0.00736371
9
Lattice="3.3513941764831543 0.0 0.0010130294831469655 0.011448913663547847 8.348857659003427 -4.839548110961914 0.0 0.0 9.662389755249023" Properties=species:S:1:pos:R:3 pbc="T T T"
Tl       0.20577558       1.50176808       3.27107750
Hg       1.87555141       3.98346330       1.84481769
Tl       1.88885667       7.04742401       0.06836736
Tl       1.88092894       0.92515039       0.07538771
Tl       1.88480492       3.98993648       5.38981664
Tl       0.21200194       6.46618737       3.28688141
Sn       0.21383057       6.76765852      -2.98068196
Tl       0.21028368       3.98116947      -1.03146672
Sn       0.20603847       1.19576924       6.66732560
4
Lattice="3.9766693115234375 0.0 0.001839637290686369 -0.0010606083346593553 3.7975622126566915 -1.1587328910827637 0.0 0.0 3.9592788219451904" Properties=species:S:1:pos:R:3 pbc="T T T"
Pr       2.83745027       2.05668156       0.92718858
C        0.85014614       0.36484626       2.04986200
C        0.85020889       1.47430561       2.86960401
Ru       0.84857411       3.50013908      -1.02086965
9
Lattice="3.7526614665985107 0.0 0.032595179975032806 0.09458099106914059 8.156065922590308 -4.621278762817383 0.0 0.0 9.386991500854492" Properties=species:S:1:pos:R:3 pbc="T T T"
La       0.78471797       6.92203749       3.61928671
Dy       2.63206272       4.25810386       2.07686527
La       0.72148128       1.09187033       2.88901869
Dy       2.59816333       1.09234055       5.96175186
Dy       2.65442467       6.07178695      -2.59386445
La       0.74916845       3.41762205      -1.10766152
In       0.75176538       3.80778782       4.93124351
In       0.78209496       6.52604534       0.25645184
Tl       2.59720680       1.08832091       0.22509409
20
Lattice="8.588863372802734 0.0 -2.0777688026428223 -1.663835987906808 8.40314767164078 -2.0637247562408447 0.0 0.0 8.998769760131836" Properties=species:S:1:pos:R:3 pbc="T T T"
Tb       5.69948653       4.27219854       4.64201973
Tb       0.23617551       0.30779585       0.82050765
Tb       1.61714183       1.97779311       3.56800901
Tb       5.76826934       7.01170511       2.90113307
Tb       4.31764841       2.59028187       1.85453236
Dy       4.38904375       5.33226223       0.14154309
Pr       4.76419252       0.78938641       4.98719052
Tb      -0.21096656       2.05435658       6.72106896
Tb       1.68765709       7.53630981       0.14691031
Tb       7.51807384       4.18905518       1.50969341
Tb       1.16027052       3.75231976       0.50669200
Dy      -0.11703777       7.62383475       3.24788385
Pr       0.32627881       5.85618726       6.36533711
Tb       7.08428198       5.93610253      -1.59520450
Dy       2.57633801       5.43018466       3.22887452
Tb       6.16301441       2.50458234      -1.24722826
Tb       2.90942383       0.91928254      -0.89290543
Pr       2.99247237       3.68501731       6.37500857
Pr       6.98541669       0.40387418       1.84735381
Dy       3.95939928       7.12912628      -2.98894497
16
Lattice="6.117541790008545 0.0 0.005769701208919287 -3.043153025064384 9.290671399359045 -0.027243679389357567 0.0 0.0 11.445634841918945" Properties=species:S:1:pos:R:3 pbc="T T T"
K        2.83301173       7.14392320      10.94086658
Hg      -0.22348963       9.12500475       0.17228507
K       -0.23542069       2.10729091       4.91456248
Na       2.82155154       3.69724145       1.31739577
K        2.82533611       2.77707174       8.75933571
Na      -0.22389429       8.98904937       5.88600834
Na       2.82503620       8.27138263       3.45596485
Na       5.87912671       0.59895021       8.61076659
Na       2.82526824       4.24954584       4.71898108
K       -0.23365776       6.25638173       2.79657058
Sn       2.82080799       0.77025441       2.92236729
Na      -0.22963121       5.41090663       6.90762830
K       -0.23627617       1.73304910       0.92045418
Na       2.83137991       7.02543917       7.14491432
Na      -0.23062400       5.12231917      10.32626271
Sn      -0.22553648       8.14978533       8.90807010
18
Lattice="5.453858852386475 0.0 0.010125219821929932 0.01162518149322261 5.488103474992886 1.0417098999023438 0.0 0.0 7.926723480224609" Properties=species:S:1:pos:R:3 pbc="T T T"
Ce       1.80826614       1.22697254       0.48113416
O        3.06946373       4.77081428       5.24923632
O        3.18472299       5.10762385       2.61673326
O        0.32960973       2.69120820       7.36768133
O        0.33627683       2.02568846       4.72628953
Ce       4.53453552       0.75001376       3.18436115
Ce       4.54148966       3.97312444       1.00183631
O        0.56631729       4.77374819       5.24533032
Mn       4.53648799       2.37093420       6.06112099
O        3.28182052       2.69706931       7.37596233
O        3.28758330       2.02682093       4.73113132
O        3.06764322       5.43726761       7.89500796
O        0.56816563       5.43761338       7.88909238
Ce       1.81525025       3.49387920       3.69325678
Mn       1.81635716       5.10449564       6.57337857
O        0.45576800       2.36281402       2.08382768
O        3.16768741       2.35953893       2.09179257
O        0.44700469       5.10507431       2.60444239
4
Lattice="3.419942617416382 0.0 0.004559446591883898 0.002418095987333732 3.4177330522806004 0.0023160655982792377 0.0 0.0 6.831415176391602" Properties=species:S:1:pos:R:3 pbc="T T T"
Lu       1.30093417       0.85067914       0.90939546
Zn       3.01105683       2.55918459       5.95710300
Zn       3.01081015       2.55886741       2.69825012
Zr       1.29999307       0.85017297       4.32535370
4
Lattice="3.722947835922241 0.0 2.1366825103759766 1.23612393428516 3.5130129837142765 2.136793613433838 0.0 0.0 4.292931079864502" Properties=species:S:1:pos:R:3 pbc="T T T"
Fe       0.82508614       2.23259853       4.95319764
Ti       2.06928076       0.47620218       2.80760062
Ru       3.30932845       1.35405727       4.94918713
Rh       2.06489719       3.11103709       2.80274450
14
Lattice="5.024720191955566 0.0 0.007137390319257975 -0.008004988613118335 6.990765756789676 -3.959315061569214 0.0 0.0 8.057461738586426" Properties=species:S:1:pos:R:3 pbc="T T T"
Ag       0.73414413       4.39403493       4.01933428
Mg       3.24457169       6.91064154       1.71156207
Mg       0.74015872       0.16265372       7.47474834
Mg       3.24787350       4.00049202       2.45095984
Mg       3.25047730       2.01220770       0.02378125
Ag       0.73730728       3.24712076      -1.17539396
Tl       3.24822497       3.00410384       5.22765757
Tl       0.73815463       2.27134522       1.71729678
Mg       0.73890779       1.32858726       4.54204440
Ag       3.24717485       4.97313223      -0.43625178
Ag       3.25167281       0.87112692       2.86320918
Ag       3.24474279       6.08223792       4.57976183
Ag       0.73372044       6.21042017      -1.69121063
Mg       0.73275782       5.22035306       0.99767648
6
Lattice="4.235222339630127 0.0 2.441746950149536 1.4127502656525481 3.993103076405975 2.4404566287994385 0.0 0.0 4.888891696929932" Properties=species:S:1:pos:R:3 pbc="T T T"
Tb       5.23156391       3.25813737       8.80072650
Co       1.00256534       1.75854381       3.91614995
Co       3.81967910       3.76384855       6.35715911
Co       3.10986601       1.75934423       5.13273087
Co       3.10926719       1.75738269       2.69689734
Mo       0.99757870       0.26320317       1.47397095
20
Lattice="7.867995738983154 0.0 0.031511735171079636 -2.141220908005124 6.50513760213244 -2.433464765548706 0.0 0.0 7.272310733795166" Properties=species:S:1:pos:R:3 pbc="T T T"
Ag      -0.86216520       2.62522136       4.41179391
Ag       4.70285495       0.00634561       6.86477126
Ag       1.42843183       5.21086879       2.01042146
Au       2.49992841       1.96389639      -0.40991357
Ag       7.52241797       1.01467431       6.82671718
Au       4.22382630       6.19351346       2.04906621
Ag       1.96037764       3.57779745       4.43706409
Ag       3.63546320       3.25997108       2.02590304
Au       5.83232917       1.32155925       2.02512068
Au       0.29841445       3.90173805      -0.42889164
Au       3.06737774       4.87242182      -0.41202040
Ag       3.06482580       0.36004120       2.00408147
Au       4.18103062       1.62623458       4.44989672
Ag       5.30951353       2.88297612      -0.39731546
Au      -0.23202407       5.54417671       4.40303960
Au       4.75930717       4.55430580       4.41819201
Sb       5.91140711       5.85700633      -0.40031122
Au       6.46602230       4.22762973       2.04541966
Au       0.82756368       2.31465380       1.99703357
Ag       1.37809118       0.68480998       4.45993265
6
Lattice="4.509674072265625 0.0 -1.0537745952606201 -0.007814446732562359 6.648439106409871 -0.009229613468050957 0.0 0.0 10.211647987365723" Properties=species:S:1:pos:R:3 pbc="T T T"
Ca       2.83297644       4.60305573       0.44258872
Sr       2.09242012       1.27989989       7.45888098
Sr       0.58895641       1.27905859       1.00673421
Sr       3.59151087       1.28025802       3.70610380
Sr       1.30563667       4.60271018       4.11886328
Sr       4.34892989       4.60173098       6.96818741
4
Lattice="3.5150606632232666 0.0 0.9471773505210876 1.6180754203282526 3.1187904886036413 0.9461144208908081 0.0 0.0 6.9301533699035645" Properties=species:S:1:pos:R:3 pbc="T T T"
Dy       2.97753301       0.74052279       4.70380250
Tb       4.01085964       1.37064253       7.81498604
N        2.53291900       2.60676890       6.30114151
Se       1.78291239       0.01550042       2.17158360
10
Lattice="4.50923490524292 0.0 0.0008200930315069854 -0.0021335228807059453 4.509988280141319 -7.347704809035349e-07 0.0 0.0 10.368650436401367" Properties=species:S:1:pos:R:3 pbc="T T T"
Pr       1.30222309       0.46165468       8.05766156
Pr       3.55332180       2.71715460       2.85084609
Al       3.55508386       2.71660513       9.30521391
Al       1.29987064       2.71697368       5.45378379
Al       3.55469526       0.46211566       5.45586455
Al       1.30052532       0.46236832       1.60310356
Au       3.55456223       0.46151110       0.27047004
Au       1.30038429       2.71690513       0.27070907
Au       3.55521708       2.71622180       6.77459188
Au       1.30054009       0.46182138       4.13972582
20
Lattice="7.4165191650390625 0.0 -3.053513288497925 -2.4892490820154345 7.346127970829297 -0.8643627762794495 0.0 0.0 10.470234870910645" Properties=species:S:1:pos:R:3 pbc="T T T"
Na       3.35606942       0.80521351       8.86522232
Sn      -1.17290922       3.75892417       3.20088787
Na      -1.15545628       3.64584071       8.43918603
Sn       3.40985999       0.96810338       3.78757390
Cl       1.34747516       2.76062923      -1.16673741
Na       7.19094812       0.65011815      -2.89109945
Cl       2.84317715       6.30831609      -2.67791829
Na       2.54734294       3.75342329       6.91877550
Cl      -0.75325059       6.25670864       9.05198935
Cl       4.37900184       5.35500701       0.89003930
Na       1.70740730       5.42286007      -0.32385845
Cl       4.44106132       1.12519770       1.50346647
Cl       1.13300000       1.29559058       2.87416994
Cl       2.45466524       0.58919002       6.03586071
Cl       3.61240375       3.39413015       4.20109638
Cl       5.68223827       0.54399223       4.69075569
Na       7.18519189       0.67425471       2.33877743
Cl       0.67528840       5.73668636       2.47743902
Cl       5.14292504       2.76672188      -2.57438606
Cl      -0.11420842       3.50691345       5.74286826
10
Lattice="5.571460723876953 0.0 -0.0013451875420287251 -0.004657985845780447 6.3312422783785065 -2.2853317260742188 0.0 0.0 10.08161449432373" Properties=species:S:1:pos:R:3 pbc="T T T"
Na       5.07139993       2.37783956       7.78520894
K        5.06847218       5.66083322       1.90157828
Na       2.28438021       4.90335288       4.91273900
Na       5.07735841       1.78850348       1.01803898
Na       2.28677893       1.83094852       6.02438319
Na       5.06932029       5.58820960       6.61519182
Tl       5.07379292       2.98767446       4.41894091
Na       2.29139034       2.34767192       2.58554478
Na       2.28276419       4.60489282      -1.12461299
Tl       2.28978110       1.18577184       9.38320490
4
Lattice="3.459359884262085 0.0 -0.0048444741405546665 -0.005723261167771699 3.4585147232558575 -0.006571199279278517 0.0 0.0 8.031563758850098" Properties=species:S:1:pos:R:3 pbc="T T T"
Er       2.98139688       0.84475495       1.79767853
Ho       2.97959612       0.84342872       5.50590150
In       1.24736052       2.57325891       7.67641807
Ga       1.24765617       2.57321294       3.64544325
8
Lattice="3.8143348693847656 0.0 0.0005222883191891015 -0.0007168074521099011 6.1952533307241096 -2.652822971343994 0.0 0.0 6.532416343688965" Properties=species:S:1:pos:R:3 pbc="T T T"
Li       1.89106393       1.98993687       1.89697501
Tm       3.79763696       1.98294482       5.16254289
Tm       1.89112527       5.08709272       3.84778771
S        3.79788421       3.45563399       2.91560613
S        1.89157647       3.63973519      -0.36528851
Cu       3.79844925       5.08601446       0.57260748
S        3.79909234       0.52211120       0.88330455
S        1.89083033       0.33042044       4.16190980
8
Lattice="5.913888931274414 0.0 0.0041020819917321205 0.0043973687247218654 6.063069656273683 -1.742042064666748 0.0 0.0 6.309272766113281" Properties=species:S:1:pos:R:3 pbc="T T T"
Cu       0.27204282       3.72513680       4.28681230
K        4.70643840       2.62170377       1.32025927
K        4.70468841       0.56314394       4.05537990
K        1.74746828       0.82095497      -0.03500599
As       1.74942324       2.27417820       3.20087482
K        1.75032223       4.82205728       0.95164370
Cu       3.23042057       3.72445631       4.29103493
As       4.70925196       5.17323050      -0.92604050
10
Lattice="4.445362091064453 0.0 0.00012433886877261102 -0.00039091766834117115 6.984801758317368 -1.882444977760315 0.0 0.0 8.216527938842773" Properties=species:S:1:pos:R:3 pbc="T T T"
Cd       1.44559395       0.06639945       7.42319333
Cd       3.66650627       4.94902200       4.41263891
Ba       3.66753182       1.12132019       4.74042287
Cd       1.44485330       0.11743989       2.19855080
Rh       1.44280992       5.92367636       2.91382060
Cd       3.66743677       4.91222622       1.41726441
Rh       3.66835061       6.07713352      -1.17941510
Li       1.44548137       3.39402311       2.70875195
Ba       1.44630730       3.89520772       7.09770393
Li       3.66781901       1.62372912       0.90822763
12
Lattice="4.905380725860596 0.0 1.1502054929733276 2.0097107845592603 7.340591499290319 2.344729423522949 0.0 0.0 10.752931594848633" Properties=species:S:1:pos:R:3 pbc="T T T"
Nd       2.40545992       2.83436532       8.93139537
Dy       4.27886217       2.21230403      11.91949012
Dy       3.55538030       4.04028051       4.15776812
Dy       5.43481148       3.46567453       7.10961838
Nd       3.12829580       0.99469761       5.95688880
Er       1.25262996       1.62484233       2.97752812
Er       5.00414668       0.37481784       8.92978500
Er       2.83129810       5.88551266       7.13926308
Nd       5.86063045       6.51273728       5.31566358
Nd       1.67892024       4.67037841      11.93282377
Dy       3.98782533       7.13419171      13.07770779
Dy       4.71021265       5.30104204      10.09702108
3
Lattice="4.292261600494385 0.0 -0.0002524445881135762 0.03338225264492328 3.8843115226403087 -2.228642463684082 0.0 0.0 4.478789329528809" Properties=species:S:1:pos:R:3 pbc="T T T"
Zn       2.27982665       1.70468215       0.37545104
Sr       0.12197741       0.40940095       2.61012152
Pd       2.29088584       2.99987881       2.61627768
12
Lattice="4.222944259643555 0.0 -0.0013302050065249205 9.15760699637128e-05 4.555905818018846 0.005141390487551689 0.0 0.0 7.908478260040283" Properties=species:S:1:pos:R:3 pbc="T T T"
Ni       1.91327659       0.25710158       7.30601430
Ni       1.90828169       2.45976372       0.63761575
Ni       4.02294420       3.28617652       4.59753091
Ni       4.02444655       1.00261740       0.66851232
Mo       4.02255875       3.28188218       7.26708899
Mo       1.90987861       2.47711705       3.30494225
Ru       1.91509684       2.48139673       5.92287800
Ni       4.02877867       0.93913024       3.34469014
Ni       1.91589885       0.18706667       4.64290499
Ru       1.91269222       0.25562482       1.97310367
Ru       4.02685633       0.93693093       5.90935278
Ru       4.02008323       3.25775224       1.95282166
8
Lattice="4.40372371673584 0.0 1.088425874710083 2.0580389954197917 3.8906615599978354 1.078611135482788 0.0 0.0 9.461851119995117" Properties=species:S:1:pos:R:3 pbc="T T T"
Au       5.24618693       2.80343799       3.25327225
Zn       4.55976897       2.39031405       6.03829051
Sr       6.09566568       3.31611887       9.26902553
Au       2.23188933       0.98894244       6.02163902
Zn       1.16808837       0.34935558       0.87256080
Mg       2.86485647       1.36883988       3.45554138
Au       2.54013348       3.82564194       4.73760542
Au       3.49655254       1.75216495      10.35265871
12
Lattice="6.3832688331604 0.0 1.7903664112091064 1.9825492262373665 7.822866562019944 5.192768573760986 0.0 0.0 12.229316711425781" Properties=species:S:1:pos:R:3 pbc="T T T"
I        7.39586779       6.50004511       6.55794057
Au       7.26957626       3.96871894       7.03294443
Cs       5.84019529       2.26841745      12.10009490
I        1.98430737       2.01102271      13.57051459
I        4.93317247       5.33642769      15.31140792
I        3.21244622       2.56772415       9.18601569
Cs       4.50518232       1.73825067       4.58636884
Cs       2.31126811       5.63596031      12.39797866
Cs       3.64060660       6.21328108       7.69250348
I        0.75329177       1.44178874       5.71252254
I        6.16558572       5.91553664      10.92972705
Au       3.08709758       0.04938302       9.65662021
7
Lattice="4.293213367462158 0.0 0.9792143106460571 2.0349585606433314 3.7822393409786357 0.9811117053031921 0.0 0.0 9.943133354187012" Properties=species:S:1:pos:R:3 pbc="T T T"
Sm       1.08043920       1.97563158       6.43753212
Al       3.61204090       3.48981674       5.25425043
Er       4.57138571       1.49599516      10.93911136
Er       1.89118546       2.46263940       2.89330977
Ga       2.72699878       2.96074266       9.13006124
Ga       3.73400574       0.99777039       4.70370895
Ga       2.84086918       0.46116860       8.61931208
6
Lattice="4.0802226066589355 0.0 -1.1768180131912231 -0.34402655290869816 4.067470628898108 -1.180187702178955 0.0 0.0 7.675286293029785" Properties=species:S:1:pos:R:3 pbc="T T T"
Pr       1.46757454       1.43722419       5.33070525
Co      -0.01220671       2.04033017       0.19106540
Al       0.50662003       0.39076320       1.98912215
Al       3.54414616       3.69722453       4.88267774
Co       2.19873236       0.01171102       0.19012434
Pr       2.58628580       2.65382980       1.54725948
3
Lattice="2.511075258255005 0.0 -0.002084439154714346 -1.2525797521081756 2.172696472191982 0.006094903219491243 0.0 0.0 6.131015777587891" Properties=species:S:1:pos:R:3 pbc="T T T"
Ni       0.77781859       1.33327162       1.10063147
Cu       2.02976091       0.61043399       3.16728278
Ni      -0.47844955       2.05753300       5.24220963
14
Lattice="8.68554401397705 0.0 4.568266868591309 2.481347949317438 7.619653096611049 4.005321979522705 0.0 0.0 9.91256332397461" Properties=species:S:1:pos:R:3 pbc="T T T"
Cl       3.66893637       5.80631664       9.98725954
Cs       2.44946807       5.60209694       6.68723824
Hg       4.76066425       2.29440642       6.03559045
Cs       8.34675180       0.15416519      13.27088695
Cs       5.06757972       3.96028653      12.58192758
Hg       6.25043903       7.36980236      15.41747721
Cu       6.96451282       1.18160963       6.72834660
Cs       6.98238931       5.25960301       8.96978990
Cs       9.50111082       3.52383686      15.04710513
Hg       5.35433574       0.56868792       8.80212256
O        8.74225232       0.84475832       6.22853614
Cs       1.14208700       1.37509919       4.47538495
Cl       1.67529482       4.57028466       3.58365009
Cl       8.39221183       3.32040764      11.70884743
4
Lattice="3.4348747730255127 0.0 -0.00027121862513013184 3.595834182929531e-05 3.432651281168473 0.001246694358997047 0.0 0.0 8.243830680847168" Properties=species:S:1:pos:R:3 pbc="T T T"
Tb       2.10573929       1.21253822       6.21381602
Ho       2.10667536       1.21497872       2.83952038
Ir       0.38903605       2.92978529       4.49995720
Pb       0.38825299       2.92963798       0.42305541
4
Lattice="4.424230575561523 0.0 1.3288984298706055 2.0105624797091077 3.941805493003358 1.3305453062057495 0.0 0.0 8.024331092834473" Properties=species:S:1:pos:R:3 pbc="T T T"
Pr       4.04262439       1.69537616       5.92664661
Sn       2.36314168       0.66872890       3.48198313
Pr       2.69409742       3.58401013       2.36975988
I        5.58126712       2.64003987       8.82418387
4
Lattice="3.286728620529175 0.0 1.6114084720611572 1.2454235936110438 3.043835441964761 1.6103304624557495 0.0 0.0 8.290285110473633" Properties=species:S:1:pos:R:3 pbc="T T T"
Ce       3.46957235       2.56736222       3.61962995
C        1.37443911       1.15968628       3.71360078
Ce       3.83298912       2.81120973       7.09168260
Cl       1.38763370       1.17259107       7.90709513
12
Lattice="4.087464332580566 0.0 -0.004690093919634819 -2.051202402670924 6.719779453391288 -1.4345439672470093 0.0 0.0 10.924139022827148" Properties=species:S:1:pos:R:3 pbc="T T T"
Sm       0.75193520       1.34379089      -0.20793257
Sm       2.79795995       1.31162212       7.16747212
Sm       0.75184554       4.62239975       8.07297341
As       0.75388939       2.77954349       5.58507549
As       0.74909129       6.37882703      -0.39362674
Sm      -1.29025198       4.61222188       4.45277652
As      -1.29492329       6.29147383       6.80755059
Sm       2.79696446       1.25127936       3.43423480
Sm      -1.29039168       4.70930596       0.78824587
As       2.79564900       2.99589922       9.41854444
H       -1.29481674       6.35073786       2.61651762
As       0.75227750       3.17739181       2.31718020
4
Lattice="3.554785966873169 0.0 -0.011285863816738129 -0.012544503804882938 3.5644250902760763 -0.0023966780863702297 0.0 0.0 3.7358245849609375" Properties=species:S:1:pos:R:3 pbc="T T T"
Cr       1.38489544       2.18694560       1.92909820
Ni       1.38808347       0.40553498       0.06378975
Ru       3.16891700       0.40544062       1.92422090
Ni       3.16385452       2.18617056       0.05673741
16
Lattice="7.637446403503418 0.0 4.1258625984191895 2.4411206814420425 7.275745961351618 4.376801013946533 0.0 0.0 8.91942024230957" Properties=species:S:1:pos:R:3 pbc="T T T"
Pb       9.06346594       4.86141722      11.21775445
Tl       7.84760566       1.22391958      13.48742960
Tl       5.24599734       4.86558867      13.61108866
Tl       4.01887498       1.22776275      11.42346452
Tl       9.06274464       4.85739364      15.67368518
Pb       4.02457904       1.22844133       6.96738818
Te       7.83687104       1.22367564       9.02840469
Se       6.63731858       2.83313649       7.02681526
Se       7.53415626       6.52762182       9.13820289
Se       2.49711139       2.88998758       4.88773501
Te       5.24529521       4.86389693       9.15116937
Se       6.44938711       3.24854731      11.15027607
Se       2.94807904       3.19859067       9.17304340
Se       3.84811832       6.90042647      11.27034179
Se       7.99093952       6.83277075      13.42161337
Se       4.03906116       6.47724605       7.15077887
8
Lattice="3.785172939300537 0.0 -0.0025008702650666237 -0.00197860686673232 3.7866637305821964 -0.002626894973218441 0.0 0.0 7.532220363616943" Properties=species:S:1:pos:R:3 pbc="T T T"
Zn       1.98316121       1.76509016       3.83062359
Zn       0.08945189       3.65834224       0.15763473
Co       0.08922084       1.76437784       1.99944543
Zn       0.09013664       3.65885052       3.83334120
Zn       1.98131139       3.65847021       1.99103956
Zn       1.98341535       1.76446214       0.16087790
Zn       1.98247225       3.65788971       5.75645372
Ru       0.09119547       1.76553051       5.76001519
15
Lattice="7.603560447692871 0.0 3.5876893997192383 2.955956346622628 7.00462454533275 3.5852904319763184 0.0 0.0 9.855448722839355" Properties=species:S:1:pos:R:3 pbc="T T T"
Tb       9.47013280       5.72404686      10.56511726
Se       6.57550405       3.90405532       6.84510033
Cs       5.66762241       5.72571189      13.69641775
Cs       9.47121327       5.72820525      15.49401657
Sn       5.66940081       5.72649054       8.76911928
Cs       4.18786573       2.22397014      11.90135595
Se       5.04259656       0.26818532       4.98236990
Tb       7.99183588       2.22378226       8.76703219
Se       1.38874323       0.26674239       3.25717499
Tb       4.18971771       2.22341694       6.97763908
Se       1.80015391       0.54567022       7.11074044
Se       2.79905504       3.82358689       5.00153152
Se       6.99390537       4.17856151      10.69513513
Se       3.33976488       4.17832395       8.97180828
Se       5.58067080       0.62500940       8.95259176
2
Lattice="2.703047037124634 0.0 0.0009150103433057666 -1.3431128169967295 2.338083821600108 -0.001388722681440413 0.0 0.0 4.821274757385254" Properties=species:S:1:pos:R:3 pbc="T T T"
Zn      -0.84627419       2.04383759       0.59978723
Zn       0.50127335       1.26158742       3.02119442
12
Lattice="5.31942892074585 0.0 -0.8865081667900085 -1.4830868152563428 4.78677441373148 -3.051939010620117 0.0 0.0 5.864460468292236" Properties=species:S:1:pos:R:3 pbc="T T T"
Ce       2.73187191       4.39091381      -2.19044579
Li       0.37371848       3.42360067       0.06157318
Li       1.30464830       0.40450187      -0.18885643
N        4.72310980       1.68003661      -0.07620079
Ce       3.71716446       1.21185476       3.73244096
Li       0.75836062       2.18068349       2.36956324
Mo       3.22386597       2.80115767       0.77183852
N        2.17055670       2.47114611      -0.94397417
N        4.27751442       3.13028733       2.49257938
N        2.60593392       1.07126394       1.66755387
N        1.72495218       3.92443086       1.62223930
N        3.84390443       4.52848023      -0.11771782
13
Lattice="6.203178405761719 0.0 2.60723614692688 3.0635934906028695 8.03613731642647 1.3983056545257568 0.0 0.0 8.714005470275879" Properties=species:S:1:pos:R:3 pbc="T T T"
Tl       2.21418804       5.31513779       6.88451859
Na       7.94201784       6.54932784       6.28647857
K        3.78538303       1.29731820       7.48985620
Tl       5.31951453       5.31866268       8.18962824
Na       2.69233757       4.08419769       1.36999417
Na       4.84305485       4.07543790       4.96204029
Tl       6.20723068       3.02594467      10.40145489
Tl       4.42493045       7.60436898       5.97129535
Tl       0.68160205       1.29953545       1.82883332
Tl       1.34267496       3.03131823       4.60797206
Na       5.79126324       6.55581481       2.70148422
Tl       3.08587158       7.60522063       9.16068545
Tl       3.78519591       1.29837043       3.13411324
15
Lattice="6.870864391326904 0.0 3.9430370330810547 2.321392765084483 6.471575135235971 3.9398105144500732 0.0 0.0 7.979207992553711" Properties=species:S:1:pos:R:3 pbc="T T T"
S        7.88795028       5.83573033      12.53384326
Dy       5.67940718       4.06290532       8.77791669
Dy       5.70776599       4.08210109      12.34915411
Dy       1.93347351       4.06134232       6.62490061
Dy       4.65498337       1.14038047      10.56057743
Dy       2.16505061       4.22300039      10.56723612
Dy       0.87813897       1.11945072       4.83825218
Dy       4.42114570       0.97603613       6.61790778
Dy       0.90618414       1.13709255       8.40862593
S        4.45540613       5.83693653      10.56754051
As       3.29305607       2.59997652       4.60361998
As       6.72844125       2.60040545       6.57447168
As       7.89088485       5.83546842       8.54478077
C        6.72879222       2.59826018      10.56351506
S        3.29205494       2.59870744       8.59328833
12
Lattice="5.832662105560303 0.0 -1.7073894739151 -3.299215319902913 4.821984649943042 -1.7112118005752563 0.0 0.0 6.080639839172363" Properties=species:S:1:pos:R:3 pbc="T T T"
O       -0.41010069       2.98694406       1.96720083
Ho       3.12350846       0.56426672       3.34799067
O       -0.86766319       2.11836828       4.72220033
O        2.27747406       2.47571824      -1.62360244
Pr       0.84191554       1.77003919       0.30570219
O        4.76954501       0.18006317      -1.07597355
As      -1.43863956       2.97469223       3.34497973
O       -1.57095024       4.67962369       3.50377395
O        2.91469679       2.11433588       1.47934440
O        1.07586199       0.17853348       2.23445176
As       2.10417381       4.18208158      -1.40404065
O        1.07083244       4.24585414      -0.02059795
16
Lattice="7.050453186035156 0.0 0.0042079733684659 -0.05370389728649023 7.0530744684528415 -0.0008789614075794816 0.0 0.0 10.02270221710205" Properties=species:S:1:pos:R:3 pbc="T T T"
Pr       3.26742771       5.72212260       0.39986776
Pr       6.83609027       2.18395427       0.40114024
Pr       5.03989934       3.93727632       7.95383257
Nd       1.55447672       0.44190425       2.90207331
Tm       5.05760042       0.44387307       2.90588378
Tm       1.56253629       0.43366664       7.96425966
Tm       6.80962941       5.72684869       5.43978826
Pr       5.03876168       3.95036535       2.90967301
Pr       6.84398469       2.16604414       5.45831424
Pr       1.53972678       3.93969443       2.89845289
Nd       5.06770306       0.43845350       7.96084367
In       3.28089212       2.16434111       0.38312739
Pr       3.25420862       5.73186696       5.45431219
Tm       1.53967801       3.93991808       7.96072928
In       6.82149401       5.74777012       0.38917199
In       3.28371636       2.17079713       5.46076067
4
Lattice="2.822904348373413 0.0 0.02764289081096649 0.043582369120188424 4.326388193727074 0.008854594081640244 0.0 0.0 4.3267822265625" Properties=species:S:1:pos:R:3 pbc="T T T"
Zn       0.04319516       2.97746908       3.11229695
Li       1.45348595       2.97551595       0.96317039
Zn       0.02108492       0.81227531       0.94260545
Ni       1.43315002       0.81395825       3.11919280
11
Lattice="3.9449026584625244 0.0 -1.1410655975341797 -0.5426395417178751 6.070487271127783 -1.8484803438186646 0.0 0.0 7.332701206207275" Properties=species:S:1:pos:R:3 pbc="T T T"
Dy       2.85507081       0.45913860       3.66285811
Zn       1.41428665       4.41060324      -1.27138087
Pd       0.67048843       4.84415789       3.51482257
Zn      -0.19122350       2.58336921       0.55632929
Pd      -0.12572281       5.25346383       0.78149579
Pd       2.08680682       0.93227890       1.03047431
Pd       3.07759492       6.06068206      -2.88762825
Pd       2.17126312       3.66728514       1.32640937
Pd       1.34690115       1.73899293       5.83538965
Pd       2.99617246       3.32773662       4.14912714
Pd       0.55211996       2.14738850       3.10194058
5
Lattice="3.926786184310913 0.0 -0.0002370349975535646 0.000644133124051419 5.399133166990292 0.0016339326975867152 0.0 0.0 5.39760160446167" Properties=species:S:1:pos:R:3 pbc="T T T"
La       1.26497632       3.49882495       3.62554999
La       1.26520193       0.79717012       0.92533243
Cd       3.22779601       0.79762380       3.62542445
C        1.26480752       3.49743955       0.92538042
Os       3.22675737       3.49597948       0.92641291
10
Lattice="4.63104248046875 0.0 2.466291666030884 1.6649884335531195 4.322315488709943 2.459779739379883 0.0 0.0 5.60340690612793" Properties=species:S:1:pos:R:3 pbc="T T T"
V        2.11147103       1.76286538       5.47516762
O        2.77328569       4.23577368       8.46843951
Ta       0.87085736       0.90291691       2.22639477
Ta       4.02856864       3.07519114       7.46918911
O        2.84845855       1.48792011       7.49836800
O        3.58216597       0.40124159       4.71591888
O        3.16291318       3.62387622       5.66249266
O        5.40669260       2.07150634       6.28936433
O        5.06773142       2.54354390       9.06884739
Li       5.38180374       4.00077743       4.91519697
10
Lattice="3.8090686798095703 0.0 -0.002961653284728527 -1.9166141092507585 5.295780800788024 -0.005867429543286562 0.0 0.0 7.251392364501953" Properties=species:S:1:pos:R:3 pbc="T T T"
Ru       1.56329592       0.75460022       1.30052573
As      -0.34785910       4.83432591       6.34993494
As       1.55209680       5.29316877       2.71980257
H        1.56411202       2.41038841       4.53538873
Ho      -0.34077783       1.87765856       6.34987458
Ru       1.55556054       4.07052455       4.91662499
Ho      -0.34493436       2.95593503       2.72793950
H        1.56422429       2.41280584       0.91618878
Ru       1.55595469       4.06902646       0.52164975
Ru       1.56253236       0.75673167       4.15537971
12
Lattice="7.748022556304932 0.0 2.3350863456726074 3.868647236875403 7.011946733227345 1.1705518960952759 0.0 0.0 9.344681739807129" Properties=species:S:1:pos:R:3 pbc="T T T"
Cs       5.13422558       6.80890047       5.84502969
Cs       5.13491864       2.15337301       5.84602697
Cs       9.00906684       4.48032969       7.01368481
Te       6.93701957       6.84440236       9.25443095
Sm       9.00537581       6.81987235      11.68587421
Ce       5.13716915       4.47992345      10.51804230
Te       7.24973330       4.47815094       3.61261627
Te      11.07580410       6.84472209       4.77400752
Te       6.94403146       2.12065338       9.25573137
Sm       1.26559143       2.14376195       9.34969655
Te       3.01909375       4.48353114       8.07599447
Te       3.33356789       2.11975626       2.43203984
10
Lattice="3.3955161571502686 0.0 -0.0030954796820878983 0.00021730781727889834 6.59424066185519 -0.3797343075275421 0.0 0.0 6.641051769256592" Properties=species:S:1:pos:R:3 pbc="T T T"
Tl       0.42075114       3.27952792       0.88868682
Tl       0.42280060       4.48015283       3.94673643
Tl       2.12000220       0.02784546       2.03324169
Tl       0.42030992       1.00054169       5.34825273
O        2.11992365       1.53816780       0.44143375
F        0.42152700       2.10355849       3.13670382
O        2.12044551       6.34382625       3.95500524
O        2.11749836       4.36710690       2.06663214
F        0.42247892       5.42347242       6.29657817
F        2.11671048       3.36660718       5.12148224
16
Lattice="6.115246295928955 0.0 0.016413073986768723 -1.0402340072852212 5.79668996227908 1.7852797508239746 0.0 0.0 7.09910249710083" Properties=species:S:1:pos:R:3 pbc="T T T"
Ho       1.22831057       5.56217875       4.07060154
C        4.21002489       1.35973991       5.86326915
Ho       3.27712566       2.83369391       4.08685650
H        1.15933483       1.36277703       4.06605427
C        2.11902579       4.23805414       5.83769624
Ho       1.24856677       5.57284636       7.65503897
Ho       3.26273994       2.83300600       7.64074017
Ho       4.11331428       5.68376877       5.87073987
H        1.13976791       1.35548513       0.54709668
Ho       0.01342159       2.94224371       5.84007427
N        2.13225049       4.27427357       2.33089847
Ho       4.09678564       5.68442973       2.32343369
Ho       0.02998035       2.95384938       2.32428826
C        4.20902084       1.35989349       2.31230762
C        5.25865780       4.27709431       7.67256295
N        5.24325483       4.24198811       4.08080491
14
Lattice="7.925759792327881 0.0 3.846153497695923 3.0020765773457465 7.285860049401008 3.8841779232025146 0.0 0.0 10.081259727478027" Properties=species:S:1:pos:R:3 pbc="T T T"
Cs       6.98528372       0.20066674       4.62453463
Ce       8.48647200       3.83884275      11.60029766
Se       6.22367110       2.04278585      11.70749010
Ce       6.98386399       0.19595768       9.65928023
Cs       3.01776530       0.19534197       2.69563027
Se       1.87441848       2.04192686       9.59475151
K        4.51981052       3.83772450       9.67963470
Se       2.82226283       5.63449468       7.65241878
Ce       3.01974361       0.19685960       7.73929401
Se       1.50998829       1.85345690       5.79676468
Se       7.16905755       5.63525249       9.75889034
Se       7.52462443       5.82373570      13.56356563
Se       3.52851205       6.09365777      11.71485999
Se       5.51295962       1.58405204       7.64531348
4
Lattice="3.8606150150299072 0.0 -0.0030252032447606325 0.00033691703655369925 3.859932407933914 0.0015104702906683087 0.0 0.0 7.543063163757324" Properties=species:S:1:pos:R:3 pbc="T T T"
Sm       2.23809187       1.87643607       1.54131802
Mg       0.30522590       3.80776429       3.42011163
Nd       2.23543665       1.87670364       5.33883538
Hg       0.30571844       3.80660013       7.27102897
12
Lattice="5.68380069732666 0.0 -0.0697174072265625 -3.0832555372721247e-05 5.522564411077261 -2.0757627487182617 0.0 0.0 5.790433883666992" Properties=species:S:1:pos:R:3 pbc="T T T"
Fe       0.99042995       4.65202499       3.62191358
As       4.61340616       1.20537197       2.64358625
As       3.11654619       5.18056911       2.76363048
Ni       3.89718172       2.03704788       4.75137743
S        0.29665512       4.08583002       1.54400814
Ni       1.03281244       1.81833005       1.87973255
As       1.77716941       2.50538754       3.97492025
Fe       3.90857956       4.48312564       0.60865122
As       0.29740382       1.31673627      -0.27095628
S        1.77858601       5.08682300      -0.06214869
S        4.62349333       4.18440704      -1.47507238
As       3.11643243       2.37560483       1.12626121
4
Lattice="3.2911179065704346 0.0 0.0012513947440311313 -1.6440192183450222 2.8478081611911694 -0.0046562510542571545 0.0 0.0 10.32430648803711" Properties=species:S:1:pos:R:3 pbc="T T T"
Zr       1.14320354       1.28217003       1.95776137
Sc      -0.50105572       2.23120783       4.49878251
Sc       1.14432453       1.28227044       7.11568695
Sc      -0.50106712       2.23370356       9.73868782
14
Lattice="7.975411415100098 0.0 -0.007344841491430998 0.0035093838687396666 7.668794305815323 -5.856369495391846 0.0 0.0 9.610074043273926" Properties=species:S:1:pos:R:3 pbc="T T T"
Tl       7.60401365       5.53169290       5.19121049
I        5.61541114       5.86485629      -1.43237385
Tl       3.61897193       7.38023432       1.46007483
Tl       3.61702491       0.77581001       2.84163382
I        7.59738881       1.18004836       2.25617017
In       7.60699705       2.54405993      -0.88155564
I        1.61831874       2.29762521       5.73948384
I        7.61188249       7.01200621       2.03517163
Ag       7.60354176       0.24041086       5.06758467
I        3.61166745       2.42069276      -0.21966965
Ag       3.61824925       4.07819420      -2.64358159
I        5.61231085       2.29055028       5.74781407
I        3.61843887       5.72560664       4.52889816
I        1.62812371       5.86916807      -1.42978181
7
Lattice="4.898108005523682 0.0 0.0028503858484327793 -2.4437799919881944 5.511238855683488 -0.030655229464173317 0.0 0.0 6.563210964202881" Properties=species:S:1:pos:R:3 pbc="T T T"
Lu       3.31888992       2.87049264       4.76724231
Sc      -1.57553824       4.14731563       1.23412259
In       0.87123192       3.25372264       2.88140719
In       0.86760828       0.47490614       4.03328292
Lu       3.31674068       0.86483716       2.14781806
Sc       0.87054003       5.09767099       5.65418310
Sc       0.86847518       1.86887737       0.17563231
7
Lattice="5.701943397521973 0.0 3.006859540939331 1.615171949932801 4.938023096023268 3.014078140258789 0.0 0.0 6.012213230133057" Properties=species:S:1:pos:R:3 pbc="T T T"
Cs       1.22073404       3.49801909       4.57693537
Cs       3.41468056       4.62897429       7.59554912
Se       4.68120092       2.40106979       4.58307488
O        4.38314263       4.13405694       4.58295977
O        3.66576109       1.91090660       5.93289795
Li       3.41447305       0.99125615       7.58189486
O        3.66457114       1.91097282       3.22656964
12
Lattice="6.065677165985107 0.0 -0.007466122042387724 0.0063240758809929 5.416054371343065 -2.722158432006836 0.0 0.0 6.783870220184326" Properties=species:S:1:pos:R:3 pbc="T T T"
Ca       2.35631677       2.13972020       4.48971212
O        3.92682628       0.39171322       4.44348834
O        0.78238617       0.39423337       4.46205102
O        5.38476899       0.33043206       0.88168792
Ca       5.38977400       1.35453495       2.91648870
Ca       2.35904854       4.07409915       1.58083944
Pb       5.39513749       4.79825926       3.03150636
O        3.92588315       3.15250013       3.06216699
K        5.38952705       3.05749007      -0.46156095
K        2.35332454       0.34887748       0.89935532
O        2.35905086       3.10492521      -0.35757770
O        0.78982691       3.14872763       3.05655407
20
Lattice="2.9413373470306396 0.0 0.0030823026318103075 -0.006260096808471205 9.427726574573517 -2.598052978515625 0.0 0.0 11.188387870788574" Properties=species:S:1:pos:R:3 pbc="T T T"
Be       2.79614462       3.32117134       1.59474119
Cd       2.79776629       0.97476279       3.80168296
Be       1.32230102       7.29825157      -0.27183734
Pd       1.32780747       1.60659806       1.46922276
Be       2.79476571       5.38645608       2.57855477
Pd       2.79303599       7.54969671       1.49586354
Pd       1.32516611       3.74923193       3.43147584
Cd       2.79214709       8.07438112       5.58448513
Cd       1.32560935       0.49607567      10.16312772
Pd       1.32496977       2.55606360       5.81036688
Cd       1.32425317       4.01811114       8.12393213
Pd       2.79384626       5.03648103       5.79851587
Pd       1.32024958       9.25967278       3.41223359
Pd       2.79588928       2.98992506      -0.75183881
Pd       2.79377238       5.79857678      -1.41331539
Pd       1.32200045       6.52343976       3.82175289
Pd       1.32457927       5.02139416       0.81130672
Pd       2.79558954       1.45505578       7.92586716
Pd       1.32261480       6.91718459       7.66615778
Pd       2.79166032       8.59412668      -1.52224229
14
Lattice="5.336457252502441 0.0 -1.1093367338180542 -1.8730757958645088 5.20766723230066 -2.552525520324707 0.0 0.0 7.21891450881958" Properties=species:S:1:pos:R:3 pbc="T T T"
Ni      -1.28652189       3.85095965       2.30781257
Nb       4.70005217       0.81070636       4.77797781
Pd       3.56025713       3.19704840      -1.40604824
Ni       3.17380874       2.37499968       3.23379280
Ni       1.93760975       4.58343219      -2.94110736
Nb       2.64362120       1.57500433       0.69791054
Nb       0.43871938       2.51351666       3.71283016
Ni       4.33484989       0.24787963       2.22830029
Pd       0.88190665       3.13221802      -0.92053758
Ni      -0.79658356       4.60505350       4.76494012
Pd       1.63218924       0.19631168       2.72513595
Pd       1.45757171       3.83962598       1.69788059
Pd      -0.10547204       1.57561256       1.19139665
Pd       2.06345651       0.86437278       5.34222491
16
Lattice="3.8002231121063232 0.0 -0.00558185251429677 -0.008910697451136486 6.711693570692456 -0.010694397613406181 0.0 0.0 10.199776649475098" Properties=species:S:1:pos:R:3 pbc="T T T"
Fe       0.70795067       4.67626998       5.42077771
Ho       0.71128290       4.68447977       8.41372426
Ho       2.61318528       2.90873081       1.09094068
Fe       2.61211351       2.91822676       4.08044075
Ho       2.60833764       6.27052931       3.30800487
Fe       0.71541816       1.32942358       9.18300082
Si       2.61359890       2.47400673       8.40038243
Si       0.71008305       4.07016629       3.28074678
Si       0.71468553       1.76724153       3.30212308
Fe       2.60858477       6.26694608       0.31447975
Si       2.61677400       0.17817713       8.38027610
Ho       0.71207481       1.31769187       6.19612910
Si       2.60671647       5.81928825       6.19825681
Si       0.70997787       5.11957850       1.10038638
Si       0.71689949       0.70617693       1.12936845
Si       2.61063538       3.52349495       6.23182802
6
Lattice="3.7582995891571045 0.0 -0.0031488793902099133 0.0015014132943345258 6.623919316840294 -0.0766778439283371 0.0 0.0 6.716526985168457" Properties=species:S:1:pos:R:3 pbc="T T T"
Sb       1.95146452       2.57661222       6.23091123
Er       0.07180613       5.88914081       6.19357434
S        1.95070395       0.53755145       4.81104401
S        1.95170171       4.61530057       0.93473682
S        0.07125264       1.59851569       0.99719759
S        0.07189725       3.55405039       4.75308777
8
Lattice="3.9701642990112305 0.0 -0.0005444461130537093 2.7330322386878316e-05 3.9671597479832514 0.003989873453974724 0.0 0.0 11.497403144836426" Properties=species:S:1:pos:R:3 pbc="T T T"
Bi       1.12244727       2.13713325       1.76521108
Bi       3.10909635       0.14808963       6.90059617
Rh       1.12331120       2.13191077       6.47663602
Au       1.12256964       0.14896857       4.32940561
Rh       3.10686179       0.15304733       2.20228829
Pb       3.10977171       0.14670889      10.97234585
Au       3.11029277       2.13526804       4.33610631
Pb       1.12744708       2.13142863       9.19151334
10
Lattice="6.009149551391602 0.0 -2.762411594390869 -1.1634390414727709 5.70739767087792 -2.5293450355529785 0.0 0.0 7.951953887939453" Properties=species:S:1:pos:R:3 pbc="T T T"
Ag       4.89131676       1.82123362      -0.19386714
Ag       4.61551902       3.15978824       3.18668100
Ag       4.31000698       4.67280645      -1.46142129
Ag       1.61826553       3.17247927       4.56978165
S        3.91830012       2.43750999      -2.33427256
Ag       2.15920276       0.46599590       5.75079006
Ag       5.16612791       0.48060657       4.37014006
I        2.14703716       3.89158783       1.75617148
S       -0.14034152       1.20342292       4.69752224
I        0.46428418       5.45584677      -1.91429369
3
Lattice="4.42563533782959 0.0 0.017554491758346558 0.0027237522083095713 4.047263182597394 -1.5256949663162231 0.0 0.0 6.159812927246094" Properties=species:S:1:pos:R:3 pbc="T T T"
Hg       2.19456434       2.72991274       3.93213957
Br       4.41052902       1.52366111       0.71950631
In       2.19461230       3.83499291       0.77393314
8
Lattice="3.492450714111328 0.0 -0.0029186445754021406 -0.006564847244110033 5.436506599211333 -1.8811588287353516 0.0 0.0 6.691850185394287" Properties=species:S:1:pos:R:3 pbc="T T T"
O        1.27296059       4.90845093       2.18454793
O        3.02064000       3.40064972       0.39000674
Li       1.27467616       2.80018060       1.78281486
Hg       3.02169609       2.80068999       5.12692142
Pb       3.02565863       0.08447619       2.72050829
O        1.27764268       0.69425607       1.37392638
Hg       1.28073742       0.08155647       6.06744665
O        3.02193562       2.20342402       3.17645424
5
Lattice="3.915564775466919 0.0 -0.008634994737803936 -0.01769156972734722 3.911426588806925 -0.01607723906636238 0.0 0.0 3.922781229019165" Properties=species:S:1:pos:R:3 pbc="T T T"
Li       2.19097907       1.19367243       1.39957764
Pt       0.22674378       3.14682772       1.39990224
H        2.19497408       1.19193858       3.36467702
Pt       2.18224528       3.14867092       3.35638697
Pt       0.23574676       1.19307956       3.36901638
15
Lattice="7.215045928955078 0.0 4.17136287689209 2.3640446688218617 6.8167613723228335 4.108964443206787 0.0 0.0 8.356568336486816" Properties=species:S:1:pos:R:3 pbc="T T T"
Hg       4.07664959       0.96328574       4.43096617
Hg       1.98821490       4.61912138       5.90160045
Hg       6.87000918       0.97316904      11.17224627
Hg       5.02318126       6.77276849      11.20989385
Hg       1.12174069       2.12956752       4.40774504
Hg       5.01769559       6.78016497       5.87585702
Pr       3.50574761       5.69205411       8.56038594
Hg       7.64989814       6.78672242      12.72147525
Hg       4.99784710       3.60005529       6.00647303
Hg       1.98540366       4.60397859      11.22919765
Hg       5.00240810       3.59945477      11.13591855
Hg       6.85577575       0.97742971       6.04058337
Hg       7.77918143       3.60809902      12.74895726
Hg       6.57792544       4.60218920       8.56154915
Hg       3.52606371       2.43435758       8.58843765
8
Lattice="3.989506959915161 0.0 0.0006480496958829463 0.0008515542359772255 6.628163759842905 -2.2720773220062256 0.0 0.0 7.038366317749023" Properties=species:S:1:pos:R:3 pbc="T T T"
Dy       3.71423516       4.10282440       1.10727525
Se       1.72036073       2.41611928      -0.02654842
Tb       3.71519794       0.78937142       5.76262446
Tb       1.72015083       4.10371370       4.62742466
Se       1.72040229       5.78987481       2.24144341
Sc       1.71890760       0.78937305       2.24413023
Se       3.71500607       2.37578724       3.37692857
Se       3.71544633       5.83037178      -1.16126720
14
Lattice="7.416572570800781 0.0 0.04409678280353546 -3.7872462292185105 6.153856067285885 -1.972658395767212 0.0 0.0 10.41329574584961" Properties=species:S:1:pos:R:3 pbc="T T T"
Se       5.05949469       2.47069665       6.48048323
Rb       1.31346674       2.61506667       6.60332862
P        5.06383295       0.77639457       7.84823738
Se       2.85957695       4.19330612      -0.87864803
P        3.49426191       2.44719349       0.18399234
Se       0.15459698       2.89493587       2.98049250
Se       1.92940629       0.77605996       0.46098348
Se       3.80537477       2.75012789       2.44846526
P        1.80198476       1.54145177       2.67218375
Se       5.50739246       1.53898780      -0.41496446
Se      -0.60996821       5.81489986       5.94539509
Rb       1.87495940       6.00487356       2.09959309
Se       3.07768040       5.68020709       5.60587495
Se      -1.75551829       6.07326899       2.09262358
12
Lattice="5.226478576660156 0.0 0.008100606501102448 -0.17765352637232656 7.394979698484849 0.01325233280658722 0.0 0.0 10.972599029541016" Properties=species:S:1:pos:R:3 pbc="T T T"
Pb       4.01516093       5.97917822       8.95627516
Pb       4.23540129       2.48821797       8.95890930
Sn       4.13160669       4.23768711       6.18838519
Pb       4.18159464       2.38134873       3.47249243
Pb       4.07245819       6.10888336       3.46875563
Cd       1.60746234       0.54967855       3.46717951
Pb       1.53675460       2.34319501       6.10166875
Pb       1.49109953       6.12420206       0.85880090
Pb       1.54226681       2.35392657       0.83132132
Bi       1.60474643       0.52915325       8.95275448
Pb       1.49897716       6.12135553       6.08837197
Sn       4.12667152       4.23959478       0.75433501
6
Lattice="4.1154069900512695 0.0 0.0013563147513195872 -2.0645715408756478 4.378546258913458 -1.462593913078308 0.0 0.0 5.7933807373046875" Properties=species:S:1:pos:R:3 pbc="T T T"
Ag       1.94651414       0.81587980      -0.09381636
Ag       1.93999500       3.70720243      -0.11625570
Ag       1.94612447       0.80832275       2.76844125
Au      -0.11460991       2.25796429       4.22016645
Li      -0.11445308       2.25502251       1.32726745
Ag       1.94058155       3.69950712       2.74683106
4
Lattice="3.129284381866455 0.0 0.004062268882989883 -1.5728842030465269 2.7068388602243525 -0.0031126425601541996 0.0 0.0 5.170995235443115" Properties=species:S:1:pos:R:3 pbc="T T T"
Ti       1.61885451       2.38055112       1.47047760
C        1.62643079       0.57370100       0.06883530
N        0.05802180       1.47597294       2.38405824
Ti       0.05880807       1.47677077       4.25890785
12
Lattice="3.579765558242798 0.0 -0.00019176331989001483 -0.0004833954620579377 5.870676020747858 -0.3546866178512573 0.0 0.0 19.142440795898438" Properties=species:S:1:pos:R:3 pbc="T T T"
Nd       0.20447361       4.70693910      15.15619814
Nd       0.20483894       2.84630973      18.10140716
Nd       1.99455534       0.33728617       6.65149894
Nd       1.99577892       3.59324592      11.70316142
Sc       1.99557905       0.53483280       9.77543047
Pr       1.99451674       1.76751892      15.33338071
Nd       0.20553537       0.68532953      12.55155410
Pr       0.20676780       0.11972216       3.48358136
Nd       0.20525404       3.39800130       8.21434856
Sc       1.99516868       3.18385648       5.03780173
Nd       1.99385807       5.81251099      18.59755114
Y        1.99628012       2.99732626       1.90441041
9
Lattice="4.873345375061035 0.0 1.5949841737747192 2.4414203971175525 7.8272938775031795 0.7941024303436279 0.0 0.0 8.243084907531738" Properties=species:S:1:pos:R:3 pbc="T T T"
Y        2.99601128       7.17328727       7.42712412
Sm       3.80954618       4.56027097       4.93804954
Pr       6.24503772       7.17798629       5.74415446
Pr       2.99419741       1.95560358       7.42583183
Sm       4.61623381       1.96365716       2.46948856
Pr       5.43111566       4.56626605       8.22447642
Sm       1.37219769       1.96442322       4.14006228
Sm       2.18096335       4.55977877       1.67246742
Pr       4.62052046       7.17597829       2.46334357
9
Lattice="3.7430670261383057 0.0 0.011417897418141365 0.0023573937844297644 7.628702753134018 4.418792247772217 0.0 0.0 8.810138702392578" Properties=species:S:1:pos:R:3 pbc="T T T"
Sr       3.37670187       6.65528245       8.43240364
Sr       3.37683450       4.11066107       4.02553406
Cd       1.50448716       4.05162840       9.85622840
Cd       1.50480666       4.05022563       6.98652457
Cd       1.50520613       1.56949808       2.47289373
Dy       3.37507214       1.56981399       8.42113041
Cd       1.50493363       6.71551418       5.45349330
Cd       1.50303484       1.56720647       5.54823578
Cd       1.50559824       6.71291099      11.39693918
12
Lattice="4.915477275848389 0.0 -0.6817566752433777 -2.2860592508131967 4.393324101416352 -0.05289720743894577 0.0 0.0 7.376422882080078" Properties=species:S:1:pos:R:3 pbc="T T T"
Mn       0.73445852       2.56376110       4.07539354
F        1.65019399       3.80652266       2.55964000
Mn       2.37653852       2.55996907       1.38412708
F        1.46915306       1.32491896       2.90256390
F        0.73444136       2.55663425       0.38617956
F       -0.00820666       3.80224592       5.25433911
F       -0.89537908       2.56435945       3.07319176
Mn      -0.90093804       2.55777283       6.76344949
F        3.10018698       1.31757084       0.21265773
F       -0.17913472       1.31758838       5.58472177
F       -1.63379258       3.80049144       0.55465627
F        2.37053843       2.56085652       5.07944392
6
Lattice="4.470072269439697 0.0 -0.00037533880094997585 0.0006727834713466928 5.153670743897182 -0.011335285380482674 0.0 0.0 7.795149326324463" Properties=species:S:1:pos:R:3 pbc="T T T"
Cl       3.69744155       4.91479441       6.59711632
Tl       3.69762276       2.33727494       6.60651220
Ag       1.45995935       4.91445067       2.70481888
Cl       1.46021024       2.33699033       4.85254426
Cl       1.46255609       2.34010701       0.56701070
Cl       3.69440210       4.91323238       2.69557488
3
Lattice="3.1426448822021484 0.0 -0.7410509586334229 -0.1799557413586028 3.1377667456131952 -0.7408195734024048 0.0 0.0 7.097840785980225" Properties=species:S:1:pos:R:3 pbc="T T T"
Hg       0.71555445       2.37835468       4.16417106
Cd       1.87715710       0.27940757       2.01788937
Cd       2.87655773       1.33827330      -0.79364267
4
Lattice="3.581254482269287 0.0 0.010726209729909897 0.012223361576180468 3.5798238448472506 0.0045404741540551186 0.0 0.0 8.95089054107666" Properties=species:S:1:pos:R:3 pbc="T T T"
Sm       0.71234517       2.50957890       7.01328168
La       2.49433376       0.71718448       4.20551764
Sm       0.70787759       2.50589607       1.36748518
Rh       2.49367442       0.71800992       8.68143760
8
Lattice="3.179041862487793 0.0 -0.002128442283719778 0.0013642552526689745 5.25243455335553 -1.8226203918457031 0.0 0.0 5.497371673583984" Properties=species:S:1:pos:R:3 pbc="T T T"
Sc       3.07491563       3.73782593       1.68412573
Sc       1.48546181       3.73756358      -1.06462260
Ti       1.48474001       1.11109421       2.59635982
C        3.07437458       2.33686280       3.51037070
C        1.48507406       2.34504721       0.77037120
C        3.07542846       5.13882101      -0.14323947
Ta       3.07369031       1.11110266      -0.15448225
C        1.48512754       5.13164013       2.59859123
14
Lattice="5.752114772796631 0.0 -0.046488672494888306 1.4152961689344608 6.961672119185861 -0.10100255161523819 0.0 0.0 6.637242794036865" Properties=species:S:1:pos:R:3 pbc="T T T"
Hg       6.87344442       5.74957666       6.06078914
O        1.22419180       0.26986991       6.18385833
Hg       2.93297255       0.52380711       1.18473708
Hg       2.93540888       0.52983542       4.50006094
Hg       6.87229906       5.74697162       2.74657015
Hg       6.16626399       2.26522267       6.11440856
Hg       3.64087932       4.00532451       4.45276821
Hg       3.63843583       4.00450416       1.13631470
O        3.28770385       2.25959536       6.13480812
O        4.63999779       0.78119131       2.82300215
O        3.99253918       5.74745047       2.76514413
Hg       6.16568567       2.25703866       2.79753436
O        5.36499398       4.25562612       6.08651687
O        1.92229204       3.74559985       2.81673511
10
Lattice="6.674754619598389 0.0 0.028377464041113853 0.009191739518080876 6.741829328219447 -3.771266460418701 0.0 0.0 7.893173694610596" Properties=species:S:1:pos:R:3 pbc="T T T"
Ce       1.43179955       0.79252274       2.55428265
Ce       4.77296190       4.16298844       0.68315594
Cl       6.43939970       1.95354377       0.70984348
Cl       6.06429015       5.20974473       2.57417009
Cl       0.13346806       1.83080122       4.43020757
Cl       3.09042820       3.00671108       2.53877402
Cl       2.74612149       6.49590943      -3.08706227
Cl       6.45341276       5.31786738      -1.17357013
Cl       3.10338040       6.36796541       0.65504792
Cl       3.48743678       3.11195211      -1.20887763
20
Lattice="3.243311882019043 0.0 -0.010377791710197926 -0.0371928740235919 9.748204805062167 -0.00901704654097557 0.0 0.0 9.748818397521973" Properties=species:S:1:pos:R:3 pbc="T T T"
Y        2.35058515       3.58690360       4.30223612
Sc       2.36257759       0.42692870       6.02104167
Be       2.34697195       4.12685114       7.19391710
Be       2.33047832       9.00275128       9.71074615
Y        2.33194193       8.46511016       2.85328424
Y        2.33605735       7.02139911       7.72851849
Sc       2.34412272       5.30385284       1.14183932
Be       2.33897906       6.48023458       4.83661773
Rh       0.71529538       7.41518502       0.46975437
Rh       0.72342525       4.62952392       8.78485037
Be       2.35702155       1.60296479       2.31729278
Rh       0.73623789       1.10421670       3.90793055
Rh       0.72061865       5.97581665       3.26005021
Rh       0.70731450       9.50612799       8.13334479
Rh       0.72904150       3.19145940       1.82309477
Rh       0.71109235       8.05964015       5.34404265
Rh       0.73295116       2.54371211       6.69528410
Y        2.35606318       2.14539192       9.17666410
Rh       0.72212706       5.30372850       6.02384282
Rh       0.74095972       0.43051520       1.15042106
8
Lattice="6.231280326843262 0.0 0.0004788507067132741 -0.008751166377986725 6.248737883057805 -0.003744927467778325 0.0 0.0 10.959358215332031" Properties=species:S:1:pos:R:3 pbc="T T T"
K        0.19724358       4.53436655       7.51936981
K        3.31414760       4.53604856      10.29784989
K        0.19862968       1.40900158       4.76631220
K        0.20336130       1.40870306      10.27551974
Cd       3.31643747       1.41078414       7.51948751
Na       3.31500075       1.40739872       2.04852456
K        3.31211790       4.53519824       4.75106071
Na       0.19630603       4.53488203       2.04126689
4
Lattice="5.263500690460205 0.0 -1.8660411834716797 -2.634834968910696 4.568213891264888 -1.8521020412445068 0.0 0.0 5.590993881225586" Properties=species:S:1:pos:R:3 pbc="T T T"
Tl      -1.38319040       2.80643547       3.18206615
Te       2.56802046       0.52130156       3.17348868
Te      -0.06379244       0.52269584       1.31307639
Te       1.24771914       2.80647359      -0.54685238
4
Lattice="3.479950428009033 0.0 0.002169888699427247 0.0010255886289614487 3.4777685083694165 0.0012274263426661491 0.0 0.0 6.657254219055176" Properties=species:S:1:pos:R:3 pbc="T T T"
Ga       1.98768707       3.41100998       4.67943584
Ag       0.24364882       1.67177778       3.15927447
Ag       0.24313273       1.67203514       6.19668683
In       1.98403738       3.40990926       1.35060142
9
Lattice="4.068911075592041 0.0 0.00130073179025203 0.004889196875253119 6.772174500829738 -3.9037766456604004 0.0 0.0 7.822427272796631" Properties=species:S:1:pos:R:3 pbc="T T T"
Zr       3.47246495       3.51350316       2.46535607
Zr       3.47094263       0.79416276       7.16566954
Bi       1.43859845       3.05118176       0.11689921
Zr       1.43638336       0.79762323       2.05769111
Sn       3.47120496       0.78901190       4.03016631
Zr       1.43757330       2.50093503       5.01888523
Zr       1.43897995       5.85604151       1.11084543
Zr       3.47358108       4.84582869      -1.44430651
Bi       1.43962160       5.31089474       4.04146197
4
Lattice="3.3591654300689697 0.0 -0.006859357003122568 -1.6871672062320613 2.909382295820607 -0.0010525708785280585 0.0 0.0 9.676417350769043" Properties=species:S:1:pos:R:3 pbc="T T T"
S        1.03887399       0.76636161       1.46781770
Hg       1.04039101       0.75910524       4.89478292
Ta      -0.64746160       1.73395912       9.59737571
S        1.03158806       2.70263846       8.04894103
6
Lattice="3.159078598022461 0.0 -0.5976395606994629 -0.36577754763974807 5.3237810190175265 -2.0955970287323 0.0 0.0 7.4274115562438965" Properties=species:S:1:pos:R:3 pbc="T T T"
Zn       1.32807796       1.38396216       0.23595325
In       1.30264365       4.37422104      -0.09295870
In       0.33585625       2.31485884       2.81387464
Zn       2.31186159       4.65421938       4.44542508
Ga       2.46496760       2.13397383       5.29355737
Ga       0.27686155       5.29434591       2.64625455
10
Lattice="3.2324953079223633 0.0 0.03353133797645569 0.05150009288875308 3.2325502460092572 0.028697030618786812 0.0 0.0 15.186423301696777" Properties=species:S:1:pos:R:3 pbc="T T T"
Rh       0.84097977       1.69878184      12.42893765
Ti       2.43332673       0.08328047      13.89684130
Ti       2.43176168       0.08336617       4.99330801
Ti       2.42880001       0.08297218       7.99363327
Hf       2.43192392       0.08238706       1.85409700
Rh       0.83959298       1.69914233       6.47121727
Ti       2.43048624       0.08133720      10.94254090
Rh       0.83932817       1.69758956       0.20257777
Rh       0.84024309       1.69818936       3.50026586
Rh       0.84064871       1.69854909       9.45934713
5
Lattice="3.806136131286621 0.0 -0.01031430996954441 -0.021683839616483118 4.9866924913255195 -0.01985369250178337 0.0 0.0 4.988534927368164" Properties=species:S:1:pos:R:3 pbc="T T T"
Y        0.08462806       3.54009353       4.57025747
Y        0.09623155       1.04927671       2.08383684
Ir       1.98929629       3.54100662       2.06880623
C        0.08725451       3.54118823       2.07368425
Pd       2.00046335       1.04822363       4.57410857
8
Lattice="5.901226043701172 0.0 -2.5911459922790527 -3.388817934069153 5.327232830983575 -1.2523648738861084 0.0 0.0 6.440309047698975" Properties=species:S:1:pos:R:3 pbc="T T T"
Tl       1.69647417       4.42689095      -2.48076978
Tl       1.28032375       0.43266091       4.58301864
S        1.85899338       3.33613558       0.60278098
Ga       3.38386597       1.76544087       1.36636501
S        3.92801681       1.71540357       3.62533888
S       -1.01200462       5.04032009      -0.29656240
Mn      -0.41469401       3.09122446       0.74547999
S       -0.52375260       2.28482509       2.88034807
6
Lattice="3.045300245285034 0.0 0.001677056890912354 0.0014010513906693469 3.0450371856921574 0.0006285772542469203 0.0 0.0 9.065611839294434" Properties=species:S:1:pos:R:3 pbc="T T T"
Ti       2.92220968       0.89532760       7.02237763
Ti       2.92411398       0.89501923       3.93215709
Fe       1.40056654       2.41916532       2.49209631
Ti       2.92202770       0.89706989       1.05289666
Ru       1.40032974       2.41913392       8.56021207
Ru       1.40093365       2.41757612       5.48372335
12
Lattice="5.162455081939697 0.0 1.5698657035827637 2.3578572007089345 4.591956135715747 1.5658724308013916 0.0 0.0 9.351454734802246" Properties=species:S:1:pos:R:3 pbc="T T T"
Ca       3.61598331       2.58150993       3.85795271
Ca       0.79506269       0.86056097       3.85063244
Ca       5.01716891       0.28622687       8.53870243
Ca       4.55712199       3.15679385      10.09256300
Ir       2.20410177       1.71943771       8.53083519
Ir       2.90804632       0.57597975       6.18979644
Ir       5.96642540       4.01746677       5.41976393
Ir       0.32723055       0.57424920       0.73590207
Ir       2.90420279       0.57227817       1.51895970
Ir       4.08347766       2.86724788       6.97252695
Ir       1.50364362       2.86711651       1.51661834
Ir       1.50835588       2.86867579       6.18771096
20
Lattice="9.059656143188477 0.0 0.17960365116596222 -3.112604215420789 7.5568788688991475 -2.7417643070220947 0.0 0.0 8.736455917358398" Properties=species:S:1:pos:R:3 pbc="T T T"
Pb       1.40214091       1.10930610       3.59048633
In      -0.14698706       4.82897891       6.51744034
In       5.27659053       0.29902784       6.47031384
Tl      -1.31600606       3.40897894       3.62247814
Tl       6.53317271       1.78519269       0.68285166
Hg       2.93453943       5.98156489       6.64367604
Pb       3.34707047       0.66218883       0.65681282
Hg       3.79818397       4.09180377       0.77412178
Pb       2.59622468       2.61768860       6.52722764
Pb       4.11682714       7.43371914       0.89352708
Pb       4.53795926       2.21106578       3.61720012
Hg      -0.91113599       6.76852688       3.67511049
Pb      -2.12699232       5.24520457       0.69201222
Pb       6.13741531       7.02532142      -2.03211512
Hg       1.80667760       4.56749049       3.64154649
Pb       0.67785625       3.01424036       0.68986245
Hg       1.00612316       6.36177501       0.78477924
Hg       5.74757120       3.66996829       6.63781834
Hg      -0.60720701       1.48530835       6.42744555
Pb       4.90938760       5.65588369       3.78984915
12
Lattice="5.265801906585693 0.0 -0.014357135631144047 -0.018522502064257207 5.586943916900716 -1.7272852659225464 0.0 0.0 5.948487758636475" Properties=species:S:1:pos:R:3 pbc="T T T"
Mg       4.58242227       2.02234143      -0.39446902
Mg       1.94194440       4.81246400      -1.24933414
F        0.82588965       0.95519860       0.62922654
F        3.07839579       3.08762075       4.54930663
F        1.22043207       4.25911957       2.95403689
Sn       1.94889770       2.02214196       2.57976866
F        2.65597243       5.37645501       0.50057399
Sn       4.57751747       4.81525194       1.71678153
F        0.44252317       3.74174766      -0.23869593
F        0.03856849       1.45152559       3.82551948
F        3.45912953       0.29977831       5.41633476
F        3.85727054       2.58294159       1.35253771
8
Lattice="3.0156896114349365 0.0 -0.018083469942212105 -0.010339290485177814 4.900358736717798 -0.17808321118354797 0.0 0.0 6.738128185272217" Properties=species:S:1:pos:R:3 pbc="T T T"
H        2.64564721       3.53598318       0.97553215
Ta       1.13661528       3.58653155       2.37419694
H        1.14122604       2.19800823       3.75063526
Ce       2.65206175       1.08463467       0.79731564
Ce       1.14006230       3.48721301       5.66783408
H        2.64221806       3.96036479       3.74854775
Ta       2.65007003       0.98653894       3.92781313
H        1.14166165       0.98371631       5.45356920
6
Lattice="4.3771185874938965 0.0 -0.0008569757919758558 0.008474602247294604 4.380607513854163 0.0019006534712389112 0.0 0.0 6.495514869689941" Properties=species:S:1:pos:R:3 pbc="T T T"
Er       3.13682925       0.00811629       6.04062981
Ga       3.13772694       0.00768198       2.83838765
Er       0.95250211       2.19778284       3.38338386
Ga       0.95310202       2.19706480       0.08890347
Os       0.94820155       0.00737934       1.46339566
Os       3.14120586       2.19827789       1.46518248
8
Lattice="4.279069900512695 0.0 -0.0017416853224858642 -0.004313441547499093 7.034554589561937 -2.455094575881958 0.0 0.0 7.482616424560547" Properties=species:S:1:pos:R:3 pbc="T T T"
La       0.41473900       2.50084085       2.27814637
Se       2.55336857       4.26047930       3.54148128
Se       2.55556890       0.74195990       1.00650751
Sr       2.55210582       6.01701017       1.04614599
Pr       0.41372741       6.01699926       4.79179602
Pr       2.55391064       2.49837709       6.01815749
Se       0.41560128       0.75387535       4.77885381
Se       0.41408064       4.24393906      -0.22263297
6
Lattice="4.024919509887695 0.0 0.0022928258404135704 -1.997564466072561 4.240884526662932 -1.3226038217544556 0.0 0.0 5.685953617095947" Properties=species:S:1:pos:R:3 pbc="T T T"
In      -0.29498203       4.00409445       4.03434836
Pd       1.71163211       2.59372515      -0.24464967
Pd      -0.30518409       1.19159182       1.13172770
Pd      -0.29501096       4.00398550       1.19132906
Pd      -0.30436142       1.17378991       3.95118976
Pd       1.71219225       2.57926710       2.57598053
4
Lattice="2.75614070892334 0.0 -0.001557483454234898 -1.2976175528244982 2.430718798915264 0.00042426117579452693 0.0 0.0 8.89751148223877" Properties=species:S:1:pos:R:3 pbc="T T T"
Li       2.45711864       0.47573301       2.11238415
Li       2.46514811       0.47193590       6.25852039
Ag       0.43131482       1.69220387       8.63372531
Rh       0.44646612       1.68237985       4.18452579
10
Lattice="5.6044816970825195 0.0 2.533921241760254 2.808428161268124 6.810743699569008 1.2648422718048096 0.0 0.0 7.484476566314697" Properties=species:S:1:pos:R:3 pbc="T T T"
Sm       7.79475832       5.85811735       8.21486310
Te       3.41331829       4.23462331       2.95517800
Sm       3.09303075       1.19463634       3.67425576
Sm       4.48408847       2.44423005       8.07327884
Sm       0.98878745       0.12006902       7.67502388
Sm       6.40388992       4.60947773       3.82040922
Te       1.86235717       2.82069061       6.40080468
Te       5.72771136       1.63305806       5.30121758
Te       5.14861355       5.41766516       6.58651769
C        4.20937401       0.12007394       9.13468239
8
Lattice="4.857386112213135 0.0 -1.2712912559509277 -0.3201651603259142 4.851119195131642 -1.2780736684799194 0.0 0.0 9.746278762817383" Properties=species:S:1:pos:R:3 pbc="T T T"
Y        4.59197577       3.61663094       2.10247430
Tb       2.32865992       1.19650265       3.39598503
Y        2.82268588       4.32267786       5.20312332
Tb       0.55360637       1.89681248       6.47627974
Tb       3.63942298       2.59667580      -1.45808752
Y        1.37743218       0.17770487      -0.16247921
Al       1.68746960       3.10730641       0.96303338
Al       4.28001400       0.68592885       0.97582731
4
Lattice="3.721388578414917 0.0 -1.3910582065582275 5.6176712926878115e-05 4.215111732108564 -0.0030236097518354654 0.0 0.0 5.67989444732666" Properties=species:S:1:pos:R:3 pbc="T T T"
Tb       2.81910988       2.98899933       2.09343586
Nd       0.14318628       0.88080085       0.60911269
Ru       1.17113698       0.88163585       3.36707078
Cu       1.72443328       2.98869759       4.84643110
12
Lattice="5.379466533660889 0.0 -0.004036467056721449 -2.6202985286392964 4.696471052737105 8.695542783243582e-05 0.0 0.0 8.681134223937988" Properties=species:S:1:pos:R:3 pbc="T T T"
Re       0.08179752       4.03396392       1.61646218
Sc      -1.23331649       3.27239099       4.33796698
Sc       1.41947152       1.71682920       8.67824693
Re       4.12184856       1.75455053       1.61385226
W        2.71252130       0.95946448       5.95514186
W        2.85217623       4.03458285       1.61209560
Sc       1.41819135       1.71807055       3.23433122
Re       0.10216953       0.95482307       5.95859984
W        4.09051269       0.14860037       8.13000977
Re       1.43812717       3.23458204       5.95584904
Sc      -1.23728200       3.27404902       7.57750676
W        4.09641672       0.14622274       3.77980530
8
Lattice="4.865652561187744 0.0 -1.1659746170043945 -0.2774660569917441 4.863528255829754 -1.1712815761566162 0.0 0.0 10.64133358001709" Properties=species:S:1:pos:R:3 pbc="T T T"
Tb       0.82678451       1.05726611       5.22349662
Tb       3.84871806       1.68130329       7.07637192
Y        2.67604108       0.44009414       2.24340534
Y        1.27909262       4.11382142       7.07094529
Sc       1.97728750       2.27520645      -0.66269482
Tb       0.10542823       2.87135423       2.24282255
Y        4.27200548       4.71054114      -1.82887258
Y        3.12732817       3.49688253       4.09094867
11
Lattice="5.208892822265625 0.0 -1.481602430343628 0.1265205907415009 6.327170092742338 0.446870893239975 0.0 0.0 9.878801345825195" Properties=species:S:1:pos:R:3 pbc="T T T"
Er       1.25940382       2.81514903       0.91229727
Ho       1.89612907       5.64132756       3.14976105
Er       2.86714107       5.21887626       6.55664430
Ho       4.93265116       0.22112684       3.91541276
Er       4.00256274       0.61488402       0.65279910
Er       4.48019738       3.64757772       2.33392449
Er       3.21966541       1.93324048       7.79136708
Er       0.87804902       6.05735448       9.45312877
Er       2.28960351       2.32158501       4.52714413
Al       3.67315453       4.44201070      -0.49148993
Er       0.24083005       3.22200229       7.21944408
9
Lattice="4.884681701660156 0.0 -1.6252858638763428 -0.801569490088898 7.731220528601602 -2.436022996902466 0.0 0.0 8.136774063110352" Properties=species:S:1:pos:R:3 pbc="T T T"
Nd       2.11290236       5.05382508      -2.32246835
Pr       4.54837607       2.46973188       4.99941011
Y        0.48638828       5.06158616       0.93411700
Y        3.73426005       5.06016085       2.53445704
Pr       1.29190784       2.46884987       3.35708588
Nd       1.30187833       7.60513234       3.36712635
Nd       2.91983143       2.45845569       0.10846622
Y       -0.32075230       7.59882284      -1.49771997
Y        2.92685366       7.59645608       0.10455663
4
Lattice="3.5524749755859375 0.0 0.0018530285451561213 0.00010192147180496023 3.55179571959172 -0.0008799951756373048 0.0 0.0 8.813433647155762" Properties=species:S:1:pos:R:3 pbc="T T T"
Tb       0.86621186       3.18571714       0.64791017
Y        2.64014017       1.41073395       6.89445446
Tm       2.64074701       1.41031604       3.15240828
Ag       0.86531731       3.18623963       4.94801363
7
Lattice="4.140135288238525 0.0 0.0013541000662371516 -2.0694693966377433 3.587164710836993 -0.0009199118940159678 0.0 0.0 8.34599781036377" Properties=species:S:1:pos:R:3 pbc="T T T"
Li       2.14165829       0.03735374       2.58129355
Si       0.07095418       1.23424299       1.79609015
Li       2.14209531       2.43072170       3.37966912
Si       2.14055832       0.03669604       5.43831009
Cu       0.07109252       1.23326672       4.08650936
La       2.13977620       2.42951794       8.21219440
Si       0.07366363       1.23362154       6.32138510
3
Lattice="3.211942672729492 0.0 -0.7099931836128235 -0.1567963738244577 3.175414095630976 -0.7239151000976562 0.0 0.0 6.877242088317871" Properties=species:S:1:pos:R:3 pbc="T T T"
In       1.01354342       0.04883695       4.05432091
Zn       2.98438512       2.10050985       5.23047211
In       1.88817588       0.96048463       0.93861529
14
Lattice="6.943723678588867 0.0 3.16359806060791 2.4012076409439094 6.515777857081094 3.1665337085723877 0.0 0.0 8.386380195617676" Properties=species:S:1:pos:R:3 pbc="T T T"
Cl       4.70308040       1.70789536       2.80472439
Li       4.55612012       6.44725297      10.96276166
K        4.55550345       6.44926667       6.77100009
Cl       2.00375043       4.66875474       7.56213690
Cl       0.84102622       1.43602932       6.02504162
Cl       5.51328876       4.69335220       9.18926806
Li       6.82631237       3.18838127      10.96121698
Cl       2.43245515       4.96563224       2.81102619
Cl       4.27832105       1.41399006       7.56681060
K        6.82782424       3.19099908       6.77094325
Cd       8.02829320       6.44760561      12.54426881
Cl       1.19775227       1.68474400       1.18665610
Cd       3.35415373       3.18969512       9.37935273
Cl       5.87004072       4.94265856       4.35114999
12
Lattice="6.77225399017334 0.0 -0.7374622225761414 -2.077167756030505 6.451543203434102 -0.7856879830360413 0.0 0.0 8.1777925491333" Properties=species:S:1:pos:R:3 pbc="T T T"
La       1.51025004       2.90962833       1.06757834
La       1.28362316       1.60556787       4.39211933
Sr      -0.53772893       4.24495810       6.67474580
La       3.36316932       0.31642127       6.92595898
La       3.15151397       5.15268050       3.60971385
Al      -0.19549470       0.92677376       7.19560761
La       4.68866371       2.11287762       3.99052838
Al      -0.22040419       4.69378699       3.32333002
Al       0.94134859       6.28575602       1.28593566
La       4.33058808       5.81115474       0.31671847
La       4.84743113       2.36092659       0.68798013
Al       2.97006274       3.57680648       6.43866934
18
Lattice="6.721724987030029 0.0 -4.045975208282471 -2.3535924289318197 6.570451439542046 -3.661665916442871 0.0 0.0 7.851972579956055" Properties=species:S:1:pos:R:3 pbc="T T T"
Ho       2.79304136       5.12500363       1.35320521
Ho       3.96950529       1.83787694      -0.74159114
F        5.87206913       2.17950273      -4.10817909
Rb      -1.40845295       6.39649513       0.94042639
F        2.07152212       1.49771497       2.61880240
F        1.01589503       3.88725570       1.16517352
F        3.21387015       2.15580543      -2.75287372
F        1.85060793       6.23678239      -4.83036515
F        4.72997207       1.52282331       1.26711481
Rb       0.27660865       3.84496325      -2.04445000
F        1.85616298       1.52177687      -0.35779182
F        1.71586401       6.35569557      -0.07079660
F        3.73884506       4.00901486      -0.31201973
F       -0.63757565       2.15105085       2.91522702
Co       0.61052589       1.83534623       1.27857643
Co       3.97084971       1.83559903       3.18383250
F       -2.14856372       6.35789535      -2.26459283
F        3.87180468       3.89062685      -5.07481371
16
Lattice="3.4174468517303467 0.0 -0.004267983604222536 -1.7288382366407975 5.289084621400621 -1.3120571374893188 0.0 0.0 13.578749656677246" Properties=species:S:1:pos:R:3 pbc="T T T"
Zr       0.35800915       0.08586075       8.96674210
Zr       0.34717147       3.69358975      -0.73860508
Zr       2.05202275       3.86136541       2.13952529
Zr       0.36182219       0.52076329      12.16033158
C        0.34675190       4.23531688      10.44035757
Zr       0.34333065       3.72849278       5.17132718
C        0.34248428       5.13111872       1.03792419
Si       0.35418964       0.39205698       5.94715334
Zr       0.35448614       1.16584180       1.42741960
C        0.34764152       2.60746513       3.18251858
Zr       2.06170926       1.32830228       4.02691087
Zr       2.05760973       2.06407960       7.21547499
Ni       0.34678977       3.46423584       8.59337372
C        2.06471835       2.17429493      -0.24420702
Zr       2.06320301       2.48731442      10.42168906
C        2.07045358       0.02008925      10.66759828
11
Lattice="5.09567403793335 0.0 -1.5079668760299683 -0.5456620069530524 6.652865386155405 -1.8493940830230713 0.0 0.0 9.400639533996582" Properties=species:S:1:pos:R:3 pbc="T T T"
Sm       0.74457753       3.99463952       4.70819091
Li       1.03955279       1.21528059       5.70401323
Sm       1.89250296       0.82631033      -0.80516145
Sm      -0.18802674       2.34022303       1.53434838
Sm       3.91151404       3.05920028       6.05067760
Sm       1.83241758       4.57501872      -1.00880497
Sm      -0.13344975       5.82327323       1.71540589
Sm       3.31408473       6.23812839       4.02355291
Sm       2.98152118       1.40509607       2.88384194
Li       2.68493695       4.19078252       1.88536985
Pd       4.13580211       6.02792284      -2.58315236
8
Lattice="4.594799041748047 0.0 -1.6344563961029053 -1.260769902476454 6.152741080583336 -3.5753345489501953 0.0 0.0 7.180239677429199" Properties=species:S:1:pos:R:3 pbc="T T T"
S        2.14230680       3.45131472       0.50155588
Rb       2.69828017       0.23965724       2.09911599
Ta      -0.16780042       3.42705796       1.29764585
S        4.26804892       0.99966434      -0.75332102
S        0.52681048       4.71222093       3.20727978
Ta       2.84212666       4.72727968       2.42237192
Rb       1.23425342       1.76145553       5.18842478
S        3.63635151       4.07771928      -2.54565325
12
Lattice="6.246767520904541 0.0 2.656738042831421 0.14210447010795932 7.503109045864183 0.9712604284286499 0.0 0.0 8.911100387573242" Properties=species:S:1:pos:R:3 pbc="T T T"
Au       0.47677329       5.48889210       1.07951314
Se       5.46651716       4.41642330       6.29455753
Se       4.59673420       4.25629747       9.47290224
Au       5.50689927       2.36355536       7.64190099
Rb       2.67610768       4.34834387       4.30022439
Se       5.68712841       3.58639143      11.49932361
Au       5.67719657       6.14819299       8.15467097
Se       1.71641708       7.29277470       2.16087517
Se       2.07675228       0.70316910       6.53836915
Se       5.87462786       0.37009262       9.01548144
Se       0.27698019       0.52820015       3.11494957
Se       2.79293525       0.58515089       4.39600776
5
Lattice="3.958425760269165 0.0 -0.0018924165051430464 0.0003230669663819745 3.962109790982143 -0.0006259976071305573 0.0 0.0 3.9604170322418213" Properties=species:S:1:pos:R:3 pbc="T T T"
K        0.85315519       2.55530970       0.84414671
H        2.83427050       0.57360814       0.84521702
Li       2.83199159       0.57419447       2.82460670
H        2.83722480       2.55679987       2.82301679
H        0.84850767       0.57295108       2.82528179
