4
Lattice="3.9324443340301514 0.0 0.010882205329835415 0.015200069567922133 3.934264861088574 0.011794855818152428 0.0 0.0 7.7615437507629395" Properties=species:S:1:pos:R:3 pbc="T T T"
Pr       1.05197480       1.23943588       0.31510779
In       3.02561682       3.20606988       6.17287880
Pr       1.05157183       1.23778453       4.24060731
Mg       3.02507455       3.20646478       2.28616304
4
Lattice="4.386648654937744 0.0 0.003921255934983492 0.003152231973155252 5.217352391702327 -0.001817586598917842 0.0 0.0 5.219926834106445" Properties=species:S:1:pos:R:3 pbc="T T T"
Pr       2.35724971       5.17253636       4.86596886
Pr       2.35529646       2.56456235       2.25520943
Sb       0.16306966       5.17262872       2.25263739
Sn       0.16298647       2.56282382       4.86368121
6
Lattice="3.3484766483306885 0.0 0.012695102021098137 -1.6389201329451875 6.280979810900974 -1.6403416395187378 0.0 0.0 6.686933994293213" Properties=species:S:1:pos:R:3 pbc="T T T"
Ho       2.01030762       3.24266935       4.92018579
Tm       0.31710917       0.18029248       3.21756587
Tm       2.00746561       3.26075020       1.57669910
Co       0.34372597       4.85999540      -0.07925795
Ho       0.31530356       0.19340719       6.56572629
Co       0.34296925       4.86189536       3.23510284
8
Lattice="3.7927730083465576 0.0 0.0036779437214136124 0.006987703813212999 3.7954354334623397 -0.0006752241752110422 0.0 0.0 13.070124626159668" Properties=species:S:1:pos:R:3 pbc="T T T"
Co       1.62600336       1.63408200       4.65618468
Rb       3.51908489       1.63518893       7.92948361
P        1.62889461       3.53264365       5.80256381
Ag       3.52130900       3.53307009      11.19329096
P        3.52222500       1.63398631       3.50724996
Co       3.52570185       3.53265926       4.65694017
Ag       1.62232454       1.63510409      11.19644294
Rb       1.62821616       3.53134467       1.38347409
4
Lattice="3.449819803237915 0.0 0.529987633228302 1.6728850436204887 3.0147674323868774 0.5259896516799927 0.0 0.0 11.373712539672852" Properties=species:S:1:pos:R:3 pbc="T T T"
Y        1.78127433       2.08879939      10.98504942
Er       2.66825887       2.61029371       5.27606830
Tb       3.97223130       1.34959519       8.28144305
Sc       3.11379379       0.84192492       2.45222038
8
Lattice="5.130789756774902 0.0 2.6187374591827393 1.8940752465530146 4.771333194121595 2.617323398590088 0.0 0.0 6.33004093170166" Properties=species:S:1:pos:R:3 pbc="T T T"
F        5.23315339       3.19476844       6.76139692
Tl       2.35712502       1.24143759       2.81305669
F        6.50340700       4.05739572      10.43177390
Te       5.86866867       3.62730412       8.59497112
F        4.26507852       0.74646130       5.41195613
F        5.57889803       1.73770446       9.15995196
F        2.60119108       3.19943391       5.41398462
F        4.00799568       4.05599622       9.15900244
16
Lattice="4.033207416534424 0.0 -0.00039106328040361404 -2.012480874048492 6.879854428080739 0.00020306026272010058 0.0 0.0 14.016427993774414" Properties=species:S:1:pos:R:3 pbc="T T T"
Mn      -1.15595772       4.97535177       7.44585395
Sm       0.86041373       5.47052351      10.13622631
K       -1.15378389       5.84300847       0.44085736
K        0.85729861       1.84589793       7.44551311
S        0.86086817       4.04677366       2.35146252
Sm       0.86201731       5.47193579       4.75094608
S        0.85959404       0.40698495       3.94108676
S        0.86039543       4.04857879      12.53785777
S        0.85941090       0.40752002      10.95532600
Mn       0.86180864       2.72522341       0.43545077
S        0.85912057       6.28057298       7.44711625
S        2.87789450       1.41558328       0.43738980
Sm       2.87813673       2.22526471       3.13249915
Sm       2.87766618       2.22782335      11.76198688
S        2.87812171       3.64867769       5.53588644
S        2.87797745       3.65185164       9.35661093
12
Lattice="6.293209552764893 0.0 -2.7784066200256348 -1.3691157764635318 6.147045469418708 -2.790921926498413 0.0 0.0 8.440235137939453" Properties=species:S:1:pos:R:3 pbc="T T T"
Sm       5.60928786       0.05353716      -0.48879007
Ru       0.97699017       2.46786977       2.28311959
Sm       3.37908362       1.52961662       3.79320332
Sm       2.40855068       0.30870035       0.77881510
Sm       2.98059886       4.60912630       2.28914369
Sm       4.63752021       3.12657197      -1.75637883
Sm      -0.23467599       4.90445511       3.51990348
Sm       1.43729906       3.38400334      -0.49015046
Sm       0.17783639       1.82997225       5.05326451
Rh       2.89261418       0.93282156       6.50580459
Rh       5.35558595       4.00401230       3.72011895
Ru       3.43738636       5.54087992      -0.49731660
4
Lattice="4.031624794006348 0.0 1.0735487937927246 1.877687921032589 3.5674849079075495 1.0726507902145386 0.0 0.0 8.119501113891602" Properties=species:S:1:pos:R:3 pbc="T T T"
Y        4.67277399       2.94727851       9.65173917
In       1.71748305       1.16311567       4.51910147
Se       0.32331151       0.32063211       1.63812592
Se       3.11424576       2.00555074       7.39556283
4
Lattice="3.3849167823791504 0.0 0.003172679804265499 -0.013099511718469336 4.968554871448354 -0.0006345704314298928 0.0 0.0 4.9685587882995605" Properties=species:S:1:pos:R:3 pbc="T T T"
Lu       1.61418469       1.27610774       1.55784794
Ca       1.60798284       3.75944091       4.03842892
Pd       3.29957040       3.76037615       1.55408286
Pd       3.30795075       1.27500651       4.04270177
6
Lattice="4.20686149597168 0.0 0.00966167263686657 0.013642438658330107 4.07340387826082 0.007857169024646282 0.0 0.0 7.386672019958496" Properties=species:S:1:pos:R:3 pbc="T T T"
Ho       2.59085567       3.60569369       3.07485606
Cd       2.58579703       1.56931139       5.60463280
Si       0.48263697       1.57038806       4.23573633
Zn       0.48106897       1.56957069       1.88299545
Ho       0.48959178       3.60655682       6.92741134
Si       2.58401425       1.56917263       0.74458719
12
Lattice="5.05159330368042 0.0 -0.0004572882317006588 -2.5132313794769345 7.178142863897547 -0.02962837554514408 0.0 0.0 9.767134666442871" Properties=species:S:1:pos:R:3 pbc="T T T"
Pb       3.82915138       3.14563247       4.85867312
Na       1.30101685       3.10211877       7.27459520
Pb      -1.21412339       5.46727334       2.39317303
Pb       3.82650587       0.65301209       2.40205608
Na       1.30307540       0.70569703       9.73974637
Na       1.30256538       0.66970549       4.84127570
Pb       1.30782029       5.42567043       9.70166366
In       1.30960061       5.48892558       4.83257964
Pb      -1.21591711       5.55435336       7.26441918
In       3.83135981       3.07658336       9.69451792
Pb       1.30667570       3.03538177       2.40313805
Pb       3.82822072       0.67149021       7.29520483
6
Lattice="4.453461647033691 0.0 -1.3100383281707764 -0.39075356520955745 4.468047071345583 -1.3350316286087036 0.0 0.0 8.210223197937012" Properties=species:S:1:pos:R:3 pbc="T T T"
Ba       1.67314006       3.26430006       0.14957623
Si       3.75991222       0.66262406      -0.98081615
Ba       2.88521241       2.14534551       4.26407868
Ga       1.18820511       0.28678627       6.72794773
Ga      -0.01591685       1.40349067       2.62151968
Si       0.12561540       4.01019838       3.10189371
4
Lattice="4.485943794250488 0.0 2.598832607269287 1.4964884780605985 4.237817766793718 2.589489459991455 0.0 0.0 5.190943241119385" Properties=species:S:1:pos:R:3 pbc="T T T"
Ag       1.75138490       1.34904773       4.50190811
La       0.25782552       0.29029016       1.90760506
Tl       3.24755670       2.40800683       7.09553935
Au       4.74368450       3.46787603       4.50042775
12
Lattice="6.507563591003418 0.0 -2.60772705078125 -1.3749209526480408 7.112193547111075 -3.3856360912323 0.0 0.0 9.594257354736328" Properties=species:S:1:pos:R:3 pbc="T T T"
Cs      -1.21642174       6.39968361      -1.13430215
Cs       5.22913636       1.79990611       5.60309378
K        2.30783171       2.55831278       2.97420834
Cs       2.63467159       3.30709753      -0.96645167
Cs       1.19866050       5.82302300       4.99609832
Ge       4.87187373       6.10313096      -0.02230990
As       3.93824761       5.38624702       2.36886138
As       1.54682607       0.92092691       5.80773447
K        5.55858996       2.55046666       1.67171607
Ge       1.62005605       6.11254876       1.27571050
As      -0.18711086       4.18350354       1.44214226
As       2.55034581       6.83173204      -1.11844539
8
Lattice="4.55226469039917 0.0 0.0015583558706566691 -0.008385001238242937 11.136592569381774 -4.3319830894470215 0.0 0.0 8.096603393554688" Properties=species:S:1:pos:R:3 pbc="T T T"
K        2.68805945       7.31411409       4.30607458
K        2.68563192       2.25715254       6.81385894
K        0.40459847      11.01696253      -2.16047502
I        0.41140530       4.64428929       5.09940541
Na       2.69298833       3.38484199       2.81764123
K        0.40478070       5.96277630       0.33112520
Na       0.39704741       9.88696309       1.84639636
I        2.67945723       8.62882512      -0.45893163
12
Lattice="7.534782409667969 0.0 -1.2822747230529785 -4.100076147818584 6.319406374834813 -1.2753740549087524 0.0 0.0 7.7061896324157715" Properties=species:S:1:pos:R:3 pbc="T T T"
La       2.43570249       5.34404943      -1.57334903
La       0.73332557       2.21052923       3.83073108
La       4.33252403       4.45187125       2.51057245
La       2.51344184       1.10649707      -0.25693481
As      -2.39568906       5.93867731       1.13141371
La      -1.42147356       3.34710242      -0.29145517
As      -0.42432488       4.86916705       4.98356961
La       4.40781701       0.21426536       3.82749239
Te       5.37944123       1.71642220       1.12655397
P        3.42320398       2.77848784       4.98156217
As      -0.26346236       0.68880257       6.26091072
Te       1.46262573       3.84200007       1.12887646
7
Lattice="3.6670942306518555 0.0 0.834104061126709 1.49843245830052 5.869063643651504 1.8749401569366455 0.0 0.0 8.471273422241211" Properties=species:S:1:pos:R:3 pbc="T T T"
Tm       2.37534027       5.80016486       2.77852562
Sm       3.30721474       1.60654794       7.16922313
Sm       2.16749959       1.87267526       3.70083274
Rh       3.96619393       4.07455188       4.27839090
Tm       0.92885663       3.54850976       9.13181008
Tm       1.65441995       4.67555872       5.95582189
Rh       3.00546792       5.27072211       8.47027791
4
Lattice="4.287420272827148 0.0 0.0019552824087440968 0.0032875859334122667 4.286835840353604 0.0004367439541965723 0.0 0.0 4.408481597900391" Properties=species:S:1:pos:R:3 pbc="T T T"
Sc       0.23242115       3.90568082       4.40607506
Zn       2.37510425       3.90582901       2.20260097
Zn       0.22999928       1.76193558       2.20095438
Pb       2.37489983       1.76256070       4.40707655
18
Lattice="6.584033489227295 0.0 3.6113440990448 2.1354179082782707 6.229228158984937 3.614377021789551 0.0 0.0 7.511150360107422" Properties=species:S:1:pos:R:3 pbc="T T T"
K        6.09568249       6.14493658       9.60193197
Rb       2.80255044       3.79135975       4.03459813
Rb       7.25303631       2.27056750      11.55523111
V        5.02780133       3.03046582       7.79497473
F        2.31502512       0.54115686       3.21170434
F        3.63147496       4.38619715       8.31579915
F        4.08419136       2.59745000       6.20173706
F        6.15225025       4.38652352       6.82178299
F        6.42298660       1.67380867       7.26858672
F        2.09012441       5.39142688       6.19985324
F        5.03974608       5.39151636      11.96271547
F        5.97207125       3.45875845       9.39037295
F        1.37979899       0.66934060       5.77743158
V        2.80144198       6.14535539       7.79495374
V        6.09402347       6.14505168       5.84682256
F        7.73943422       5.51692841      12.37522338
F        5.01705596       0.66984254       3.62518968
F        3.89876699       1.67425310       8.76494981
15
Lattice="7.130123138427734 0.0 3.7828102111816406 2.5836633427077516 6.646073227810967 3.784433364868164 0.0 0.0 8.659161567687988" Properties=species:S:1:pos:R:3 pbc="T T T"
Li       7.55476741       5.98224257      11.66595771
Li       2.69684254       2.65983601       7.88406955
Zr       7.55392438       5.98388495       7.33677040
Te       5.15943910       4.28662797       7.54299034
Te       3.90049466       1.04322655       5.69885783
Te       8.62704343       4.27708543      13.84565194
Zr       2.69746335       2.65888548       3.55282144
Te       3.83606747       0.99917920      10.04155100
Te       5.14919739       4.27459571      12.00338367
Te       7.36615989       1.03771173      12.00093306
Zr       3.98970688       5.98414363       5.44201301
Te       8.68810856       4.32029762       9.50296827
Li       6.26662241       2.66150474       9.77090295
Te       7.37641681       1.04339491       7.54303058
Ti       6.26306202       2.65881913       5.43926085
4
Lattice="3.130182981491089 0.0 -0.0016916119493544102 0.000685358044589912 3.1330935205443993 -0.0018261485965922475 0.0 0.0 5.7217326164245605" Properties=species:S:1:pos:R:3 pbc="T T T"
Li       1.11140782       0.29629158       1.27524780
Ga       2.67681489       1.86345290       5.53628027
Ga       2.67692255       1.86265474       2.72638034
Ru       1.11130746       0.30018502       4.13551021
14
Lattice="5.17210054397583 0.0 2.980560302734375 1.7274902733860664 4.878330351961721 2.976076126098633 0.0 0.0 5.9752888679504395" Properties=species:S:1:pos:R:3 pbc="T T T"
Ni       6.42111539       3.62976399       5.51941240
Ni       3.00637884       1.13700024       2.54110302
Ni       3.88928612       3.62888091       6.98506167
Mg       4.73348116       0.57111880       5.52604584
O        4.51878665       2.47139512       8.50807083
O        2.25335739       2.47112761       7.20566773
Au       1.28478715       1.78672720       5.52939604
O        3.16671556       4.78020847       5.52267687
O        5.51631411       4.77770725      10.14065337
O        5.51856338       4.78067254       6.87633160
Ni       3.88795137       3.62728022       4.05778568
O        3.00837201       4.60663554       8.50698164
O        2.25394438       2.47209966       3.84102074
O        4.73240094       2.56503535       5.52305946
10
Lattice="4.885906219482422 0.0 -0.03466445207595825 -0.024859905896374317 4.895850485132101 -0.01967010088264942 0.0 0.0 14.610569953918457" Properties=species:S:1:pos:R:3 pbc="T T T"
Tl       3.84646924       1.64687278       0.10205614
Sr       3.83459603       4.09177379       3.71808769
Sr       1.40211958       1.64601046      11.08831153
Tl       1.38625471       4.09782487       0.11334634
Pb       1.40374543       1.64733953       2.25970532
Pb       3.82939440       4.09196551      12.56775236
Pb       3.84558201       1.64604548       7.40441326
Tl       1.40241384       1.64303321       5.29096431
Pb       1.39065010       4.09278610       7.41920896
Tl       3.83302269       4.09375376       9.53959777
8
Lattice="4.117335796356201 0.0 0.0007689422927796841 0.0007804804463746314 4.113618299830227 -0.002480039605870843 0.0 0.0 9.248058319091797" Properties=species:S:1:pos:R:3 pbc="T T T"
Cd       3.13096992       3.88973854       7.69690394
Cd       1.07075963       1.83196273       7.68708975
Ce       1.07123855       3.89180624       4.24642013
Ce       3.13169990       1.83510080       1.87899821
O        1.07326626       1.83516578       3.06919869
As       1.07151004       3.89151838       0.36531903
As       3.12910861       1.83390623       5.77042484
O        3.13048571       3.89357161       3.06144929
14
Lattice="4.5570478439331055 0.0 -0.016872301697731018 -0.03903753258208996 6.437711136032675 -3.6553428173065186 0.0 0.0 7.399003505706787" Properties=species:S:1:pos:R:3 pbc="T T T"
Li       3.46618456       0.33243515       1.64626435
Li       1.18116207       1.54665170       2.81227777
Li       3.44297019       4.04808172       5.00460629
Hg       3.46210913       1.29786981       4.35690611
Li       1.16499407       4.43718660       3.37087141
Pd       1.17373661       2.55172550       5.40134921
Pd       3.43894036       4.99510952       0.14516433
Pd       1.15429513       6.17215178       1.25685383
Pd       3.43382855       5.85955824       2.88928621
Hg       1.16968126       3.41541447       0.72915326
Pd       1.18584186       0.62867644       0.15402598
Pd       1.16005630       5.31083073      -1.44269497
Pd       3.44931255       3.14603309       2.35571235
Pd       3.45613103       2.16376582      -0.33278176
10
Lattice="4.481360912322998 0.0 0.0021190543193370104 -0.007188397131263473 9.515232231924253 0.0021740456577390432 0.0 0.0 9.764686584472656" Properties=species:S:1:pos:R:3 pbc="T T T"
Ba       0.57191623       4.85406769       3.44447906
Sr       0.57595533       1.84057298       0.64038752
Ba       2.81579516       5.02912314       8.33061384
Sr       2.80984820       8.05503182       1.37483391
Ag       0.56810361       9.44381248       3.44886662
In       2.81737196       1.87980416       3.44877053
Sr       2.81054934       8.05894801       5.52177915
Sr       0.57644947       1.83777110       6.25293965
In       0.57053961       8.01490865       8.32788347
Ag       2.81663852       0.45626754       8.32878207
8
Lattice="6.019570350646973 0.0 -2.0162858963012695 -2.434203242219014 6.123008344448628 -0.30040404200553894 0.0 0.0 6.589419841766357" Properties=species:S:1:pos:R:3 pbc="T T T"
Li       3.67324998       4.25996151      -1.91927151
P        2.20818302       4.74451235       1.01963195
Li       0.06349497       4.73149497       3.19762676
S       -2.05353309       5.37884960       2.18730110
S        1.49574478       3.23344838      -0.36682090
S        3.27748404       0.09470552       1.50140390
S        2.36797678       3.68896339       2.75962224
S       -0.30986154       3.84023993       5.44148035
16
Lattice="3.875180721282959 0.0 -0.0022512886207550764 -0.007360016780143355 8.645074572394874 2.0676395893096924 0.0 0.0 14.818649291992188" Properties=species:S:1:pos:R:3 pbc="T T T"
Eu       1.02027209       7.17194593       8.31822112
Eu       2.96475574       0.93273315       8.64525262
Bi       2.95923781       4.58815619       1.58488797
Eu       2.96267446       2.42728355      13.53195276
Eu       2.95927162       1.96233736       5.57884858
Eu       1.02257180       3.76151436      10.68305840
Eu       1.02048980       5.67350796      13.89753144
Bi       1.02600257       0.38517515      11.40904438
Eu       1.02235484       1.93189577       2.41066710
Bi       2.95888239       6.42104299      11.11779419
Bi       2.95603852       7.94613365       5.46641843
O        1.02474459       0.77241423       7.06010671
O        1.02142598       2.88687488       4.51507792
Bi       2.95929635       4.37722568       7.96797924
O        1.02385058       3.55725785      13.00519891
Eu       1.01770567       5.21787712       4.39133697
6
Lattice="3.9409680366516113 0.0 0.0006791585474275053 0.0011888741835002084 3.9434848423814457 -0.0009493043762631714 0.0 0.0 8.715154647827148" Properties=species:S:1:pos:R:3 pbc="T T T"
Sb       1.68162786       0.52834754       2.35336846
Sb       3.65155714       2.49876804       4.35999605
Al       3.65063780       0.52844003       7.72019319
Hf       3.65116245       2.49856025       1.27965994
Hf       1.68133348       0.52971441       5.43639655
Sb       1.68159458       2.49910040       7.71252868
4
Lattice="3.232124090194702 0.0 -0.9556113481521606 -0.7524437499541325 4.901643233866244 -2.548643112182617 0.0 0.0 6.185892105102539" Properties=species:S:1:pos:R:3 pbc="T T T"
Tl       1.80036525       2.04222830       1.24282238
Zn      -0.29244219       4.30726916       0.10311427
Zn       0.84399826       3.34810849      -2.10190175
Bi       2.67905494       0.57694848       4.29184581
10
Lattice="4.23110294342041 0.0 -0.0003577951865736395 0.009176652769094004 8.498161129633466 -1.383436679840088 0.0 0.0 9.31568717956543" Properties=species:S:1:pos:R:3 pbc="T T T"
Br       2.78279626       4.99216040       5.81686442
Tl       2.78361482       4.76252407       2.20364944
Ge       2.78116409       0.44198727       4.04993534
Ge       0.66554584       3.26310446       6.64071360
Tl       0.67233185       7.43845150       7.09884403
Br       0.67222883       7.20408722       3.49875553
Br       0.66572132       4.34187684      -0.34028291
Br       0.66673722       2.33080254       3.47351267
Br       2.78931611       7.85347979       0.33329798
Br       2.77915248       1.35551282       7.21233746
14
Lattice="5.792365074157715 0.0 -0.4739903509616852 0.002483857367411389 5.812260097010944 0.009440875612199306 0.0 0.0 9.329996109008789" Properties=species:S:1:pos:R:3 pbc="T T T"
Na       5.06978757       4.57862317       4.74870791
Ag       2.34751991       3.12630541       6.03298688
Na       4.98504449       1.67106320       6.96660267
Sn       3.48304566       1.67202907       3.72893512
Ag       0.52403550       1.67297086       4.34721743
Au       1.95655721       1.66804243       8.47121711
Ag       3.28558563       3.12754289       1.16945616
Ag       4.06369752       4.57807787       8.01033886
Sn       0.29285163       1.66729846       1.48374554
Au       5.74927284       4.57033430       1.05109260
Sn       1.18680778       4.57594451       8.28156699
Ag       2.34644167       0.21340069       6.02151954
Ag       3.27903275       0.21104995       1.17014283
Sn       1.94829287       4.57876313       3.44206350
3
Lattice="4.343569278717041 0.0 -0.7158516645431519 -1.1868483390584286 4.155928159080169 -0.6826827526092529 0.0 0.0 10.154621124267578" Properties=species:S:1:pos:R:3 pbc="T T T"
K        1.62407031       2.06995442       6.91737126
Na       2.72919910       3.52923306       3.32313401
K        0.70257369       0.81372234       1.13630560
6
Lattice="3.750382900238037 0.0 -0.0008201095624826849 -1.8733168807543166 3.248988887655467 -0.0037265641149133444 0.0 0.0 7.733831882476807" Properties=species:S:1:pos:R:3 pbc="T T T"
Se       0.67087723       2.16538690       0.44488702
Lu      -1.20352017       3.24755875       6.24513063
Lu       2.54350628       1.08236511       2.38301440
H       -1.20550309       3.24822492       2.38137170
Se       0.66939331       2.16567351       4.31400444
H        2.54587827       1.08208828       6.25187133
12
Lattice="3.822829484939575 0.0 0.9005410075187683 0.8511560111483043 5.540177180802518 1.7651629447937012 0.0 0.0 7.3319411277771" Properties=species:S:1:pos:R:3 pbc="T T T"
H        1.32483798       3.09692479       6.62824925
H        1.58666111       3.54143399       2.38766206
H        3.68501744       1.86038997       8.61902977
O        1.31326290       0.31114400       2.42302683
Nb       1.52535779       5.42374217       7.85433926
O        0.49331952       1.64100399       7.02819964
N        1.59576174       1.21066965       3.18992173
O        2.58144746       0.01284293       6.37753689
O        1.80144374       4.00139222       6.53917154
O        2.34302698       2.16903400       2.84588057
O        1.07288714       4.28877535       1.98951307
O        1.05492143       1.27915165       4.34493953
12
Lattice="5.3496012687683105 0.0 -0.0020014061592519283 0.009082432553562796 6.376956670719278 0.01396449189633131 0.0 0.0 6.3719329833984375" Properties=species:S:1:pos:R:3 pbc="T T T"
In       5.05146448       2.55238348       1.82923685
In       2.37287263       2.48525012       5.85202707
Mg       2.37991785       4.80148894       1.79603718
Mg       2.38387881       5.72929283       5.01242632
In       5.05760352       4.84289168       5.92577009
Mg       2.37420914       1.63809695       2.72110813
Mg       5.05037597       1.61550783       4.97855121
In       5.05785640       5.78633159       2.78568106
Ni       3.71553107       3.68956339       3.86424312
Ni       1.04091566       3.69245668       3.86659192
Ni       3.71221528       0.49529780       0.68049721
Ni       1.03760288       0.49442339       0.68106913
8
Lattice="3.659743309020996 0.0 0.0006991894915699959 -0.00802346067216602 5.972503994799974 -2.1073858737945557 0.0 0.0 6.325992584228516" Properties=species:S:1:pos:R:3 pbc="T T T"
La       0.51776012       3.02465787       0.93842782
Sm       2.35136124       0.03701689       1.99307427
Sm       0.52311371       0.03971238       5.15570302
N        2.34622997       4.57076820       1.99129836
N        0.51569085       4.57021321      -1.17013399
La       2.34772227       3.02378783       4.10156150
N        0.51912628       1.47397967       3.04783440
N        2.34963500       1.47430664      -0.11197781
16
Lattice="7.549716949462891 0.0 4.012296199798584 2.7148488329942206 7.044750742952027 4.008662700653076 0.0 0.0 9.102895736694336" Properties=species:S:1:pos:R:3 pbc="T T T"
K        2.78567197       6.39487802       4.18203098
Ce       2.78603807       6.39506529       8.73247539
Tb       1.42935887       2.87309954       6.72826444
Tb       5.20411180       2.87387929       8.73538053
K        1.42948491       2.87334245       2.17695803
K        5.20363524       2.87440123       4.18546476
Se       4.18025731       4.70872224      10.75367472
Se       7.61710539       4.52997885       8.74876698
Tb       6.56075823       6.39646734      10.73963957
Se       6.22863347       1.03741164       6.71665898
Se       2.78839684       1.21628447       8.72111412
K        6.56117984       6.39718537       6.18803339
Se       3.85923170       4.48976462       6.71475620
Se       2.52873509       1.03717303       4.75022624
Se       6.54753391       1.25778496      10.75515741
Se       7.87937056       4.70896116      12.71974892
12
Lattice="4.361652374267578 0.0 -0.0023051269818097353 -2.1762179473030594 6.938554578710701 -1.8168076276779175 0.0 0.0 13.477404594421387" Properties=species:S:1:pos:R:3 pbc="T T T"
Te       3.49707035       2.57192533      10.69941329
Sr       1.31317132       0.15600557      11.09188694
Ho      -0.86320295       2.84639877       7.73297232
Ce       1.31940812       5.56576411       4.42755873
Te      -0.86385065       3.25587823       4.69611790
Te       1.31810852       2.82510922       1.03219974
Te       1.31894710       6.13595318      11.76565915
Ho      -0.86282443       4.41287796      -0.44148051
Te       1.31826584       4.96438896       7.73690197
Ho       3.49777269       1.20451387       2.44403638
Te       1.31457688       0.67658183       7.54803615
Te      -0.86093203       6.42675705       1.98913703
18
Lattice="7.846551895141602 0.0 -0.003224604530259967 -0.00045350798349186875 7.0356192442643115 -3.6610007286071777 0.0 0.0 8.599609375" Properties=species:S:1:pos:R:3 pbc="T T T"
Al       5.20005938       4.16067586       3.23563067
Sn       2.21920903       3.53566369      -0.03497294
Tm       4.77115130       5.30617836       0.31436446
Tm       3.59727935       3.69129116       5.80350197
Al       1.27834848       2.33343559       4.18442562
Tm       7.52444375       4.70953013       5.26937400
Tm       4.77463764       0.17375316       7.62997271
Tm       7.51781594       2.80386806       1.61577566
Tm       2.22123101       5.00614663       2.79503664
Tm       3.59374223       1.78990651       2.14473953
Tm       0.84676312       6.32021455      -0.21498885
Tm       0.84674712       1.19114327       7.10105074
Al       3.16781013       0.64531575       5.06355066
Al       7.09057782       5.85296143       2.34965274
Sn       6.14502473       0.01736073       1.79346506
Sn       2.22287490       6.47982296      -2.97532313
Sn       6.14715323       2.96257297      -1.14584035
Tm       6.14485370       1.48798244       4.62393641
12
Lattice="5.102740287780762 0.0 -1.346074104309082 0.05419542727714591 7.426799447810438 0.2561758756637573 0.0 0.0 10.437215805053711" Properties=species:S:1:pos:R:3 pbc="T T T"
In       3.31777753       2.98718168       7.44403630
Cl       3.84789465       1.15196490      -0.95545348
In       4.43379501       6.75011371       1.34841478
Cl       4.79708329       4.78765736       2.72335203
Tl       0.84241644       6.86618579       8.45373463
Cl       0.88161226       2.82230660       8.56794155
Sn       3.87615067       4.87146486      -0.82374858
Cl       1.76289041       6.91827541       1.55516366
Cl       2.93218815       1.08622150       5.97729501
Cl       2.95223536       4.95074029       6.07550519
Tl       1.79111248       2.86529201       1.65950989
Cl       4.76290992       1.23230893       2.55420209
8
Lattice="4.597993850708008 0.0 -0.002292454009875655 0.00823293450276859 5.0177325417966765 -2.8955631256103516 0.0 0.0 5.795016288757324" Properties=species:S:1:pos:R:3 pbc="T T T"
Rh       1.36244086       0.50390615       5.15130543
Rh       1.36834722       2.91397215       3.76158031
Rh       3.66446939       2.10704429       2.37097296
Rh       1.36484876       0.50365358       2.36913862
Bi       1.36828801       2.97968933       0.86400066
Bi       3.66964447       4.64959835      -2.03230524
Rh       3.67010081       4.71692609       0.86551742
Rh       3.66578466       2.10624111      -0.64489357
10
Lattice="4.17120361328125 0.0 0.0016476918244734406 -0.0007271812890121348 6.5920414523537465 -2.0493733882904053 0.0 0.0 7.919229984283447" Properties=species:S:1:pos:R:3 pbc="T T T"
Dy       0.74918905       4.46218488      -0.35587784
Te       0.74985126       1.86128218       5.69774347
Dy       2.83357237       6.53044868       5.54904644
O        2.83522015       5.43596661      -0.42376005
Nd       2.83515251       0.07429070       3.68595119
Te       2.83454210       2.53581336       1.54523027
O        0.74760490       5.60363735       1.54471399
O        0.74937353       5.55411575       5.62354244
O        2.83475347       5.38421678       3.64548843
Nd       0.74621618       4.32320056       3.55767363
4
Lattice="4.095608711242676 0.0 0.005019363947212696 -0.0003377896298889014 4.108110890806219 0.0045498572289943695 0.0 0.0 4.097511291503906" Properties=species:S:1:pos:R:3 pbc="T T T"
Pt       2.91247082       2.58832410       0.97425174
Er       0.86449680       0.53452649       0.96831240
Pd       2.91281406       0.53363397       3.02104434
Pt       0.86336889       2.58789387       3.02032394
3
Lattice="3.5864524841308594 0.0 -0.8278986215591431 -0.1867476603486438 3.5814050201028276 -0.8200345635414124 0.0 0.0 8.166335105895996" Properties=species:S:1:pos:R:3 pbc="T T T"
Pr       0.66438836       2.78669087       1.54723984
Er       1.99398519       0.41249260       7.32050713
La       3.13167580       1.61056733       4.05612645
12
Lattice="5.507530212402344 0.0 0.010750102810561657 -0.20179847936944445 5.569942583475693 0.009582760743796825 0.0 0.0 6.976072788238525" Properties=species:S:1:pos:R:3 pbc="T T T"
In      -0.02206766       3.92195036       1.18605792
F        1.41732954       5.39686226       4.91553998
Na       2.83821222       1.13882861       6.46775491
F        1.41296379       5.40192816       1.05227447
In      -0.01487660       3.92061508       4.77487215
F        4.48456043       4.90593941       6.48013423
F        4.05313313       2.44427112       1.04961921
Tl       2.83446879       1.13648522       2.97848018
F        4.06271780       2.44082701       4.91637717
F        0.89627250       3.03973852       2.97528003
F        4.57785168       4.80352609       2.99266365
F        0.98761742       2.93756059       6.46399363
6
Lattice="3.4403975009918213 0.0 -0.013545496389269829 -0.015379977802031224 3.440052222504168 -0.011264550499618053 0.0 0.0 14.237081527709961" Properties=species:S:1:pos:R:3 pbc="T T T"
Na       2.62283539       3.40577127       7.64791820
Pb       0.91210283       1.68456524       0.57019486
Pb       0.91089574       1.68486061      10.17207441
Er       2.62350351       3.40443665      12.46597756
Er       2.62393390       3.40462877       2.85838072
Pb       0.91316084       1.68468294       5.18086558
10
Lattice="4.80859899520874 0.0 0.0016019669128581882 0.0008639850206949478 9.55481811431885 -0.5230808258056641 0.0 0.0 9.08749008178711" Properties=species:S:1:pos:R:3 pbc="T T T"
Ba       2.91316095       2.48538538       8.22069198
Ba       2.91381841       4.68159415       5.01331859
Ba       0.50916489       1.96607970       2.55083291
Ba       0.50994746       8.63955498       7.56043616
Ba       2.91396833       9.14782637       4.14436959
As       0.50878117       6.92609295       4.85144675
As       2.91457198       4.18769580       1.85413538
Ba       0.50964126       6.43677376       1.68283600
As       0.51023723       1.81846045       6.01216687
As       2.91426085       9.29235587       0.68213235
8
Lattice="5.6144514083862305 0.0 -2.5438239574432373 -1.1531018039748635 5.489468270076084 -2.5475821495056152 0.0 0.0 7.481022834777832" Properties=species:S:1:pos:R:3 pbc="T T T"
Ce       2.88957261       3.74785913      -3.03717103
Sc       4.58114287       2.37476781       0.70672470
Sb       0.04973852       3.70747147      -1.84099079
Ce       1.19827548       5.12189491       0.70370224
Sc       0.65614889       1.00626086      -0.49063146
Sb       4.03969247       5.16182646      -0.49413920
Sb       3.49966684       1.04439519      -1.68854251
Sb       1.74131706       2.33358997       1.90466260
4
Lattice="4.288509368896484 0.0 2.479301929473877 1.432407541390972 4.0393953981458335 2.4856479167938232 0.0 0.0 4.957692623138428" Properties=species:S:1:pos:R:3 pbc="T T T"
Ce       0.87805872       2.16519905       6.17299557
Sm       2.30645580       0.14694826       3.69207743
Rh       2.30844400       3.17688640       3.69627540
Ir       3.73707243       1.15582656       6.17317368
20
Lattice="6.899112701416016 0.0 1.3955613374710083 1.8910143253265228 6.326155556836478 1.1140512228012085 0.0 0.0 6.277430534362793" Properties=species:S:1:pos:R:3 pbc="T T T"
Li       4.23921261       5.23858777       4.36908903
F        5.31870931       5.53036922       2.65356582
F        1.87885578       5.64313525       2.43471958
F        4.02842195       4.11199644       6.00870889
F        3.46650218       3.46355140       4.06912401
Li       0.66119882       1.67730310       1.81025951
Li       3.98215075       2.01301017       2.95869029
F        6.55563610       3.14688175       4.25358683
F        4.72466708       0.80335862       5.42672788
F        1.36228906       0.97350954       4.98290473
F        3.85173500       0.13096000       3.41961312
F        5.22277547       1.44873507       6.69130266
F        2.43106902       2.35312631       1.89963815
F        8.31982018       5.06508471       2.51503374
F        7.75812271       4.41513895       7.11659851
F        4.68591752       4.82556643       7.50761086
F        7.11040542       3.73858687       5.64444772
F        0.84751941       0.14507698       3.04033728
F        5.86124249       2.23036495       2.43205785
F        1.87888124       1.58177248       6.34788931
10
Lattice="5.481244087219238 0.0 -0.0010620392858982086 -2.7454062835624313 3.959301575540987 -2.6181702613830566 0.0 0.0 5.723945617675781" Properties=species:S:1:pos:R:3 pbc="T T T"
O        3.62783850       2.23777401       1.70365923
Li       2.68082371       0.19715166       1.04642927
Tm      -0.05908150       0.19447383       3.89141489
Sn      -0.05652607       1.88999348       0.72752772
Sn       2.68158393       1.90613916       3.61640828
O        1.99929495       3.84965981      -2.26075127
O        0.61640601       3.84898888       0.63422226
O       -0.98353431       2.20848920      -1.17555978
O        1.05632750       1.24915619       2.34672477
O        1.54554708       1.22879544      -0.52771883
16
Lattice="6.744874000549316 0.0 3.811885356903076 2.224340284225135 6.364299164576291 3.81689190864563 0.0 0.0 7.759862422943115" Properties=species:S:1:pos:R:3 pbc="T T T"
Tb       5.63486305       0.15741693       6.38346649
Tb       6.74771703       3.33907418       8.29060393
S        4.47156605       1.72397681       4.43621990
Tb       3.37356317       3.33839895       6.38568598
Li       5.63254541       0.15686723      10.26415443
S        5.61322897       4.97345387       6.38824444
S        1.13629247       1.70304606       6.38188746
Li       2.26306614       0.15720549       4.47776675
Sm       6.74620454       3.33958932      12.17147980
S        5.57636652       4.94967672      10.19546088
Tb       2.26257650       0.15753625       8.35611582
S        1.17187334       1.73039015       2.57385010
Li       3.37356193       3.33956580      10.26624816
S        2.24374880       4.93003782       4.41556624
S        2.27503149       4.95297927       8.33593138
S        4.50479535       1.74710736       8.35760686
4
Lattice="3.612506151199341 0.0 -1.0979688167572021 -0.7339150147872153 5.025466529983956 -2.427917242050171 0.0 0.0 6.485469341278076" Properties=species:S:1:pos:R:3 pbc="T T T"
La       2.35028830       2.45108770       3.25292032
Li       0.99791667       0.08837308       5.30254633
La       1.31194620       3.79220201      -0.15270995
Mg       3.36935556       1.07876202       0.13640527
8
Lattice="4.364285469055176 0.0 0.004136424511671066 0.00423107382721069 4.75102713057562 -2.7190346717834473 0.0 0.0 5.4652814865112305" Properties=species:S:1:pos:R:3 pbc="T T T"
Zn       1.05327034       4.39902493      -0.70671522
Mn       3.23295446       1.23459006       4.74547959
Rh       1.05246545       2.02019500       3.39194777
Rh       3.23454776       3.61752685       0.65129400
Rh       3.23617183       3.61409948      -2.05819561
Rh       1.05419494       4.41854985       2.02047946
Rh       1.04980784       2.01773456       0.62647729
Rh       3.23426714       1.22092604       2.01528185
14
Lattice="6.6798882484436035 0.0 3.5641565322875977 2.5394734231193468 5.943238897768042 3.2483932971954346 0.0 0.0 7.649904251098633" Properties=species:S:1:pos:R:3 pbc="T T T"
K        7.96021293       4.27283194       6.21712160
K        6.47558201       1.26316697       4.63828442
Ce       6.69115797       1.31734151       8.45971386
O        5.92765865       3.03566369       9.89794940
K        3.32241049       1.37698170       6.74512061
Cs       3.33960909       1.36091493       2.84551910
O        7.47651123       5.80381317      11.62415907
O        5.64420101       2.75227365       7.02266839
O        1.77652527       2.74993475       5.02090411
Ce       4.79591630       4.41059909       8.26649948
Ce       7.90332278       4.39371757       9.94972614
O        3.32522961       5.51308671       6.70389641
O        3.59323895       5.78988958       9.57804768
O        6.80020831       5.49723426       8.33890904
9
Lattice="3.7646758556365967 0.0 0.002371212001889944 0.0003507655852265501 5.634142387915397 -3.255720615386963 0.0 0.0 6.506692409515381" Properties=species:S:1:pos:R:3 pbc="T T T"
Ba       0.96052878       0.89642679       1.33678037
F        0.96102690       3.98481134      -0.97336713
Ag       2.86086329       4.65369166       1.33415508
F        2.84210908       4.86340318       3.68948405
F        2.84453894       2.50124895       0.33847027
F        0.96024819       2.98173433       3.08073167
Dy       2.84274536       2.77505444       4.59425259
F        0.95946887       1.35970864       5.17111353
F        2.84334439       0.95333620       3.23486798
8
Lattice="4.424062728881836 0.0 0.005836955737322569 -2.1870118859010432 5.347090759026541 0.002107105450704694 0.0 0.0 7.270773410797119" Properties=species:S:1:pos:R:3 pbc="T T T"
Tm       1.04185876       2.31428970       3.76877943
In      -1.16441534       2.99456175       5.92285681
In       3.24379773       0.06566167       5.24966265
In      -1.16343247       2.99284580       1.61249735
Cu       1.05064262       3.74292682       0.13553699
Tm       1.03700421       0.74566144       0.13177464
In       3.24324910       0.06649049       2.28878658
Cu      -1.15833658       4.66539821       3.76673744
12
Lattice="3.431546211242676 0.0 -0.0008416115306317806 -0.003529579051920093 6.931472356508032 0.01959535852074623 0.0 0.0 7.15877628326416" Properties=species:S:1:pos:R:3 pbc="T T T"
In       1.22018308       6.10521241       1.54935814
O        2.93533217       6.01720156       0.31584542
O        1.22324244       0.44120498       5.15077026
In       1.22153365       2.55097312       5.39976519
O        1.22275067       1.22740864       1.87302011
O        2.93561150       2.57460022       6.68180598
F        2.93627230       2.65584515       3.84573258
O        1.21922894       4.67703101       5.25066836
In       2.93793811       2.41188294       1.62887754
F        2.93342904       5.90818339       3.04214312
F        1.22345595       3.92215270       1.75830662
In       2.93400791       6.02180321       5.31342240
12
Lattice="6.40855598449707 0.0 -0.029165394604206085 0.40886215118661 6.6318290966392315 -0.030583379790186882 0.0 0.0 7.733939170837402" Properties=species:S:1:pos:R:3 pbc="T T T"
Ho       0.58746598       2.42894580       0.45157472
Na       3.99328605       5.74520682       2.35196145
Cl       2.08829250       0.44117599       4.32292609
Zr       0.58553963       2.42910886       4.31968481
Cl       5.48946573       4.41451742       4.29087758
Na       3.99710128       5.74865808       6.23423180
Cl       5.56320273       1.35415665       6.17234739
Cl       5.56573270       1.35443740       2.43101265
Cl       2.14945352       0.38025532       0.45711972
Cl       5.42970033       4.47934858       0.42591192
Cl       2.01558166       3.50574006       2.43723251
Cl       2.01262178       3.50455182       6.17965828
10
Lattice="4.977923393249512 0.0 -1.0096303224563599 -0.014374616200136747 5.087527471656937 -0.01787395589053631 0.0 0.0 12.986949920654297" Properties=species:S:1:pos:R:3 pbc="T T T"
Y        0.01995632       4.40736198       3.39090519
Y        2.51504161       1.86199289       2.89124189
Pr       1.49112968       1.86106952      10.74438130
Y        2.99212718       4.40264386       5.32260355
Pr       1.99913633       4.40602135       0.34877617
Pr       4.49103655       1.86086862      -0.17935802
Y        3.48173625       1.86730505       7.74197090
Tm       0.98407259       4.40619935       8.22962877
Y        3.96938945       4.40792085      10.22157053
Tm       0.51435983       1.86113517       5.85393796
12
Lattice="6.320267200469971 0.0 -1.6863423585891724 -1.2292969373343121 5.8922708143764035 -2.0896713733673096 0.0 0.0 7.712593078613281" Properties=species:S:1:pos:R:3 pbc="T T T"
Tb       4.03649066       1.14550695       0.96342980
Tb       1.58285544       2.04397423       6.31135107
Tb       2.40502542       5.00091170       3.78190681
Tb       4.83402146       3.13975005      -1.90097903
Cd       2.97910077       4.27997283       0.41616969
Tb       5.47446645       3.92601652       2.51423321
Cd       5.25448683       0.79951882       3.80616263
Cu       0.86222265       4.91257268      -1.42404747
Tb       0.02393080       5.87741231       1.20661436
Cu       3.01443166       2.22788625       3.68254580
Cu      -0.07016452       0.33668479       0.56862853
Cd       0.94667057       2.70770697       1.83385091
7
Lattice="3.9111409187316895 0.0 1.738179326057434 1.0068503400362656 4.374561176831979 2.128024101257324 0.0 0.0 5.87869930267334" Properties=species:S:1:pos:R:3 pbc="T T T"
Si       1.35894498       2.15274020       3.22688074
Pd       3.95399358       2.18595053       2.84701194
H        3.32206969       2.15495731       7.03424767
Hg       1.86550661       4.33429263       7.22997731
Pd       2.12151302       0.35998832       1.81227682
Pd       2.68280417       2.11244206       5.34635541
Pd       4.51037485       3.94674076       6.37854227
10
Lattice="4.619148254394531 0.0 -0.009638161398470402 -0.019320745531528648 4.610597659942215 -0.01283851359039545 0.0 0.0 10.82154369354248" Properties=species:S:1:pos:R:3 pbc="T T T"
Sn       2.14162021       0.17993691       3.28371107
Sn       2.13273125       2.48399601       7.39918027
Sr       4.44085898       2.48290940       4.59531686
Pt       4.45141636       0.17945013       1.99334139
Pt       2.14107100       0.17864215       5.97070369
Sn       4.45143775       0.17940348       7.40108144
Sn       4.44062028       2.48468221       0.69536691
Ni       2.13074544       2.48430435       1.98862955
Sr       2.14190405       0.18003837      10.20779678
Pt       4.44336801       2.48520546       8.82615504
8
Lattice="4.5721893310546875 0.0 0.00038187840254977345 0.0006852275000657777 5.101098491421969 -2.944650650024414 0.0 0.0 5.885897636413574" Properties=species:S:1:pos:R:3 pbc="T T T"
Li       0.38581287       3.95675504      -0.55401205
Ga       2.67025186       4.79493102       0.89732850
Ga       2.67081888       2.27851950      -0.55320051
Ga       0.38367610       3.93378990       2.38696489
Ga       0.38365677       1.41802266       0.93850856
Ga       2.67111727       4.79599975      -2.00620407
Ga       0.38302497       1.41961087       3.83876354
Li       2.67205680       2.25706017       2.39172126
5
Lattice="4.555968284606934 0.0 -1.5173321962356567 -0.6219964937263144 5.00944479371761 -1.8932914733886719 0.0 0.0 7.674678802490234" Properties=species:S:1:pos:R:3 pbc="T T T"
Hg       1.90321090       2.45985027       4.50515716
Tl       1.07203360       4.30499580       1.97888173
Na       3.57610722       1.69239511       1.90361033
Rb       0.37933876       0.51785622      -0.11972163
Sb       2.77892853       3.57381349      -0.52540733
12
Lattice="4.77481746673584 0.0 1.427902340888977 2.160813968015418 4.262581804310014 1.4312679767608643 0.0 0.0 8.615212440490723" Properties=species:S:1:pos:R:3 pbc="T T T"
Ni       2.42148100       1.06479635       2.29822602
Ni       1.85331195       0.71726886       8.47507989
Nd       6.28572642       3.44025380      11.01897754
Ni       0.69414162       0.00334493       3.70803447
Ni       2.36365609       2.49489509       6.77966508
Ni       3.49883117       3.19084707       3.01367056
Nd       5.31427476       2.84346878       5.62838203
Er       4.35385403       2.25115284       8.80665855
Ni       3.66826167       0.36630654       6.77738239
Ni       1.28505291       0.36737656       6.06495156
Ni       3.00954983       1.42617705       4.64957533
Ni       4.80325990       1.06467173       3.01005162
8
Lattice="3.8178274631500244 0.0 0.5381874442100525 1.870197349995464 3.330219074674119 0.5381408333778381 0.0 0.0 13.74061107635498" Properties=species:S:1:pos:R:3 pbc="T T T"
La       3.82942817       0.23351027       2.53298247
La       1.45001510       1.07455607       5.60483455
La       4.20660193       2.68197270      13.67294689
F        0.65091236       0.60252350      11.22611801
La       2.76948665       1.84051992      10.03818154
Au       4.95408913       3.12398555       8.36532331
C        2.10964171       1.45869767       0.96011884
F        3.56481677       2.31244462       4.43006669
20
Lattice="7.954814434051514 0.0 -1.5336930751800537 0.427076676627571 6.87812163420037 -4.494961261749268 0.0 0.0 8.134532928466797" Properties=species:S:1:pos:R:3 pbc="T T T"
Rb       3.03794705       3.71153293       3.36451314
Rb       8.02679163       1.54084063       1.13627392
Rb       0.51477781       0.19179074       6.31003664
F        3.45903395       6.42221836      -0.01967776
Rb       7.01913950       4.17679782       3.55251843
K        2.24547800       4.18602374      -1.16225697
Rb       4.60220129       0.12335381       1.73800181
F        8.02122595       2.33321007      -1.59089356
F        5.66244522       0.47957805       4.34336733
F        3.59726067       6.43116837       2.82004229
K        6.46367720       4.22646503      -0.68867170
F        3.58605786       2.57674828       0.91507897
Au       4.85255666       6.85933157       1.33305121
F        1.26706921       2.52652986       5.02434453
F        0.40633758       4.47310957       2.61185774
F        1.90540743       2.33183606       0.53839741
F        5.54336627       2.90558750       1.61607606
F        5.85279895       0.13086786      -0.96321295
F        7.96429436       5.82009222      -2.47315389
F        4.56148219       4.32325478      -2.56934123
15
Lattice="7.801456451416016 0.0 -0.013990436680614948 -3.9023930599622796 6.759602349470123 0.017758267000317574 0.0 0.0 10.420639038085938" Properties=species:S:1:pos:R:3 pbc="T T T"
Cs       1.45047891       2.22484711       1.63795780
Mn      -2.45440726       4.47651430       3.09830328
K        1.44586814       6.73074760       9.94737916
Br       3.39844333       3.35077418       4.72894329
Cs       1.44795115       6.73064244       4.73691972
Br       3.50356719       5.54355761       1.69821641
Mn       1.45040301       2.22623592       6.37528738
Br      -0.40064576       1.15952964       7.76210497
Br      -0.60118863       5.54192021       1.70749774
Br      -2.45583552       6.73111383       4.74710689
Br       5.35338269       2.34129373       1.69141241
Br       1.44676689       4.35793733       7.76322302
Br      -0.49896997       3.35017869       4.73621858
Cs      -2.45007990       4.47659368       7.84124307
Br       3.29802070       1.15782476       7.75119859
4
Lattice="3.4508583545684814 0.0 -0.0013527498813346028 -0.00013360311328015662 3.4503793690564244 0.0005761046777479351 0.0 0.0 9.405760765075684" Properties=species:S:1:pos:R:3 pbc="T T T"
Sc       1.33270637       1.56022503       3.82394742
Y        3.05454408       3.27518536       1.45154553
Ho       3.05285484       3.27858819       6.15532246
Sc       1.32974996       1.55408036       8.48164168
12
Lattice="5.638990879058838 0.0 -0.005179703701287508 0.0004614041615820812 7.352621540850961 -1.6779897212982178 0.0 0.0 7.565661907196045" Properties=species:S:1:pos:R:3 pbc="T T T"
Au       0.74060194       3.01145994       5.80684746
In       4.97361883       1.71617880       0.63256905
Rb       2.15533711       3.79467519       2.27104164
Au       3.55292901       7.07692523       0.61227874
In       2.15266181       0.84845737       4.49818699
Au       0.75808438       7.07553203       0.61039602
Rb       4.97481302       6.15624748       3.98503063
In       2.15602360       5.42538870       6.22437745
Au       2.15620607       0.79982187       7.31501539
In       4.97545670       4.71579644       0.10813290
Au       3.57048227       3.01042085       5.80328208
Au       4.97437105       1.88758214       3.59441349
10
Lattice="5.33298921585083 0.0 -1.2901335954666138 -2.889321003488817 4.606668393959169 -0.5984669923782349 0.0 0.0 8.339723587036133" Properties=species:S:1:pos:R:3 pbc="T T T"
Rh       0.52853772       3.28650517       5.60655535
Sm       3.10614315       0.04414639       0.88131911
Rh       1.21814296       2.07132112      -0.47600039
Rh      -0.15323104       4.50237264       3.35038735
Sm       0.44125981       0.04661881       5.69314513
Sm       0.84485618       1.91946750       2.59252962
Sm       3.50950022       1.92171685       6.11771963
Rh       3.88315292       2.07526970       3.05141969
Rh       2.50635963       4.50080068      -1.46448746
Rh       3.20050624       3.28505594       0.79222259
16
Lattice="5.8785600662231445 0.0 -1.3047696352005005 -2.1867750418726932 5.6902656203287645 -1.381666898727417 0.0 0.0 7.931122303009033" Properties=species:S:1:pos:R:3 pbc="T T T"
Li       3.22521177       2.90374922       3.53620656
Cd       1.66440024       4.60378686      -1.76050962
Sr       0.01949062       3.18162373       3.50103901
Mo       1.29601927       0.52080506       1.37133107
O        1.97784966       1.48397381       2.77482282
Cd       1.91954086       5.58181043       2.05915716
O        4.95007979       1.86685877       3.98667308
O        0.76627962       5.01183135       0.24905881
O        1.90985040       1.17319034      -0.19754589
Cd       1.09535261       0.73501984       5.48503814
O        4.01344736       4.61601008      -1.44856737
O        2.00355506       2.76281868       5.08469900
O       -0.29244189       1.51683648       1.53041853
O        3.80015729       4.47220562       2.46601273
Sr       4.04153950       2.08283408       6.25827086
O        0.94764235       5.45770305       4.15651414
6
Lattice="5.024065017700195 0.0 0.0006448120693676174 0.00010468479585779509 4.966970919459566 -2.8043277263641357 0.0 0.0 5.706037998199463" Properties=species:S:1:pos:R:3 pbc="T T T"
Cd       4.83548849       2.30227270       1.79547942
Cd       4.83505511       3.94759446      -1.02747612
Tb       4.83393006       0.63780487       4.63913732
Cd       2.32294061       0.63265411       2.52077392
Cd       2.32346421       3.75154625       2.87736006
Cd       2.32276829       2.47382165       0.00728938
8
Lattice="6.028689384460449 0.0 3.4255948066711426 3.007611683250161 6.079264351808379 1.7033737897872925 0.0 0.0 6.9978437423706055" Properties=species:S:1:pos:R:3 pbc="T T T"
Mn       2.77834735       0.87282620       3.44993498
Tl       4.28042987       3.90879889       7.80307865
Tl       7.29073121       3.91114258       9.50635175
Te       4.35359268       2.92223344       4.35084917
Ge       5.78756421       0.87192865       5.16383599
Te       2.21037918       0.87024199       7.76964234
Te       6.20881772       0.87027388       7.75969623
Te       7.36900711       4.90210028       6.04917620
7
Lattice="4.39166259765625 0.0 -1.2042629718780518 -0.32899951287740253 4.378496489552957 -1.2062052488327026 0.0 0.0 8.655252456665039" Properties=species:S:1:pos:R:3 pbc="T T T"
Zr       3.75599408       2.10477204       1.81574974
Tb       2.94536426       3.60032995      -1.15505185
Zr       1.39689687       4.29517486       1.81772952
C        3.59174043       4.29511353       1.21364446
Tb       0.17461872       0.61329225       5.99190865
Pb       0.99947877       1.50050046       0.35936422
Pb       2.12243495       2.71033742       4.47801912
5
Lattice="3.428931713104248 0.0 -0.13772384822368622 -1.7476728545674542 2.953819322872361 -0.35741227865219116 0.0 0.0 14.251279830932617" Properties=species:S:1:pos:R:3 pbc="T T T"
Hg      -0.85622423       1.67395841       6.10544345
Hg       2.46986400       0.15559795       9.28029400
Hg       0.64399246       1.59450350      12.10049781
N        0.79516809       0.24106857       2.58262513
N        0.76388735       0.10319294       1.56653426
4
Lattice="4.0718536376953125 0.0 1.195879340171814 1.859700729344695 3.6232660524856963 1.1955559253692627 0.0 0.0 7.516291618347168" Properties=species:S:1:pos:R:3 pbc="T T T"
Tb       3.00026997       1.03514970       1.89425954
As       4.55897215       1.98747352       4.11652201
Sr       1.93584481       2.87302877       5.51239121
Se       1.50500206       0.12213449       6.97875551
9
Lattice="3.7312004566192627 0.0 -0.013118520379066467 -0.04905777167264701 6.467604550955676 -3.75154447555542 0.0 0.0 7.476141452789307" Properties=species:S:1:pos:R:3 pbc="T T T"
Dy       0.88444531       2.68965752      -1.16920912
Dy       0.89250215       1.51799051       2.57214549
In       2.73056561       5.33746294      -1.56005590
Dy       0.86431121       5.33807087       3.41855403
In       2.74268725       3.68303614       1.30658841
In       2.76683272       0.52417560       5.05507112
Ni       2.76137093       1.02501327       0.36018728
Ni       2.74751934       3.18311895       4.09285266
Ni       0.86416265       5.33635540       0.35595238
11
Lattice="4.454566478729248 0.0 -0.004826689139008522 0.005877815176543477 6.336998120910918 -3.3572685718536377 0.0 0.0 7.167212963104248" Properties=species:S:1:pos:R:3 pbc="T T T"
Bi       4.45276525       2.89548625      -0.14450729
Cd       4.45051155       4.88291695       3.72902401
F        4.45366258       5.14418888      -1.15009974
F        4.45211859       2.73388864       4.56873411
F        2.22489832       4.87569014       3.73509078
Bi       4.44809960       0.52636936       3.78913347
F        4.45145248       4.62209336       1.44488686
F        4.44971303       1.71566189       1.82418802
F        2.22210189       0.51726644       3.79712759
F        4.45144568       0.68820025       6.24269315
F        2.22530053       2.89719522      -0.14004784
12
Lattice="7.0015716552734375 0.0 -1.0379358530044556 -3.7120202549076566 5.936969946529414 -1.0389469861984253 0.0 0.0 7.971948623657227" Properties=species:S:1:pos:R:3 pbc="T T T"
La      -2.01045725       3.30504565       4.21234663
S        0.64301540       3.89493372       5.32097168
Tl      -0.22978446       2.32140551       0.22768199
La       1.54878862       1.33527660       4.21355515
Zr       1.41319062       5.28881631       3.17404444
S       -3.23943766       5.68488429       5.34806138
Tl       3.23561759       4.27890285      -0.81117088
S        5.90074078       0.74339252       2.06888722
S        2.32359303       3.08575640       2.04023073
S        4.21631232       1.55399948       5.34935994
S       -0.93667194       4.89346457       2.03978908
Tl       3.30620703       0.36205916       0.22792561
8
Lattice="6.223227500915527 0.0 3.194638967514038 2.250922353953512 5.79801593183028 3.1846792697906494 0.0 0.0 7.640680313110352" Properties=species:S:1:pos:R:3 pbc="T T T"
Cl       5.37685984       3.43773268       6.90847444
Cl       6.92203288       4.54671120      11.49163279
Sn       5.02138061       1.09274087       7.60708805
Cl       2.70868214       1.61452672       8.30181022
Rb       3.03772389       3.99043680       3.78356787
Cl       1.11480705       0.57129183       3.71659969
Cl       4.24869905       0.55997531       5.32914986
Cl       5.79608322       1.62157328       9.88649819
9
Lattice="6.052163600921631 0.0 -4.094171047210693 -1.2364273938388246 6.326950617350735 -0.4629099369049072 0.0 0.0 7.607851982116699" Properties=species:S:1:pos:R:3 pbc="T T T"
Fe       0.91225437       0.01997101       3.63513762
Se       0.80553270       5.36205310       5.05602480
Fe       5.27607449       3.59554387       1.02083207
Cl       2.67879790       1.18603030       4.30060665
Br       4.77780161       4.13709777      -1.31483989
Cl       3.45707676       4.14259725       2.02370003
Br       4.99364323       1.12074819       0.56711634
Cl       0.75847262       3.40511631      -0.89249599
Cl       0.83148103       0.55291748       1.54760629
10
Lattice="3.6727662086486816 0.0 -0.001241840422153473 -1.8403189044396135 6.430103249767868 -0.0035698243882507086 0.0 0.0 7.314406871795654" Properties=species:S:1:pos:R:3 pbc="T T T"
Pr       0.31422646       3.69660409       3.01584649
Ge       2.14865844       0.08440591       6.67313272
Pr       0.31341117       3.13286257       6.67101247
Pt       2.15070867       1.32324835       4.49760268
Pt      -1.52509015       5.50374645       5.19330833
Pt       2.15085905       1.31429003       1.53501864
N        2.15148105       3.41104250       1.19102613
N        2.14956154       3.41385067       4.84533603
Ge       0.31711400       0.31079303       3.01674736
Pt      -1.52263992       5.51051834       0.84342743
6
Lattice="3.3754119873046875 0.0 -0.00037114234874024987 0.0020267476412131717 3.3743928544762887 -0.0007998385117389262 0.0 0.0 10.301412582397461" Properties=species:S:1:pos:R:3 pbc="T T T"
Tm       3.22895698       0.64516844       0.24604723
Tm       3.23057611       0.64408581       7.02060376
Cu       1.54224171       2.33134177       8.75908317
Tm       3.22932741       0.64556728       3.50179205
Ru       1.54294879       2.33132709       1.87571941
Cu       1.54356767       2.33169515       5.29939895
11
Lattice="4.865870475769043 0.0 -1.3943356275558472 -0.32077628319257234 6.873683739529313 -1.1201220750808716 0.0 0.0 9.185443878173828" Properties=species:S:1:pos:R:3 pbc="T T T"
Nd       4.70122670       2.72663298       0.64363907
Nd       0.96631007       3.52185288       5.99009862
Ir       3.87028850       2.99857284       6.93299127
Nd       3.75468550       5.78057642       6.53144617
Nd       1.70388388       1.47617812      -0.62462042
Nd       2.81472553       4.21884413       3.25435128
Nd       3.33798448       0.94884652       5.08093460
Nd       0.02145030       6.56825512       2.69181319
Nd       1.90640883       5.07823732       0.08432943
Ni       2.52117828       1.21139424       2.22775988
Ir       0.85225999       6.29920080       5.59085336
8
Lattice="5.154533386230469 0.0 0.006585035007447004 0.0033465391167465347 5.181293360477266 0.00025671941693872213 0.0 0.0 10.151751518249512" Properties=species:S:1:pos:R:3 pbc="T T T"
Sm       3.64730471       2.71027474       8.41952555
La       3.64664570       2.70742456       3.41458702
Ho       1.06883220       2.70504132       0.83171946
Ho       1.07107759       2.71045973       5.91408402
Sm       1.06942648       0.11975978       3.40674466
Pr       3.64585362       0.11683827       0.84243771
La       1.06981010       0.11825973       8.41218062
Ho       3.64520895       0.11908582       5.91040209
8
Lattice="5.883874416351318 0.0 -0.973071277141571 0.849401026981411 6.623397417288805 0.8774560689926147 0.0 0.0 7.654228210449219" Properties=species:S:1:pos:R:3 pbc="T T T"
Br       5.53335079       0.61704041      -0.19243413
Rb       2.62536518       6.36552922       4.68129143
Cl       2.35647319       3.15296444       3.42372627
H        4.06733045       5.11971409       0.86279691
Cl       5.35978317       6.03273789       2.47322590
Cl       0.65415006       1.75208438       6.55304102
Cl       3.33006170       4.58257125       7.55817432
Br       4.37563411       2.50090159       4.39397227
20
Lattice="8.57516098022461 0.0 0.007884155958890915 -4.23532707586466 9.096837408096658 -1.5659284591674805 0.0 0.0 9.83072280883789" Properties=species:S:1:pos:R:3 pbc="T T T"
I       -0.14419484       1.66432528       8.10471176
Ag       4.17862992       6.35541981       5.04185796
Ag      -0.12402311       6.36478221       0.11654695
Ag       4.17297156       6.36306882       0.13856557
I       -2.24427947       8.08601703      -0.80937246
Ca       6.29784683       1.81512252       5.82782316
Ag       2.00698963       1.80518116       0.90400635
I        4.13824772       1.64977294       8.10936955
Ag       6.27622368       1.82868423       0.91511966
Ca       2.00177417       1.81257818       5.82150871
Ag      -0.12108047       6.36676184       5.05550527
I        2.01390421       4.61347731       1.02100434
I       -2.25664039       7.80425673       3.72935868
I       -0.13590833       1.96432361       3.53733948
I        2.04168205       7.83299948       3.75369025
I        2.03690026       8.10737049      -0.77950290
I        6.29290034       4.61523733       1.06367802
I       -2.27379221       4.90424106       6.34351255
I        2.01121631       4.91268875       6.32351912
I        4.14561372       1.96791456       3.53961110
10
Lattice="4.555329322814941 0.0 -0.9267666935920715 3.0848035723883634e-07 4.748126983642568 -0.003529348410665989 0.0 0.0 11.695884704589844" Properties=species:S:1:pos:R:3 pbc="T T T"
Sn       3.69190156       1.14041653       6.81437777
Sn       1.40361591       3.51601479       7.20434830
Nd       1.97841193       1.14215981      10.03536808
Sn       0.85626708       1.14293773       4.51334881
Nd       3.21525564       3.51577565       4.45462716
Sn       0.24063175       1.14121597       1.45873761
Sn       2.54892275       3.51579914       1.14282394
Rh       3.91060901       3.51570461       7.88658797
Sn       4.41494592       3.51397061      10.36168379
Rh       2.79302124       1.14089319       2.34953373
18
Lattice="5.861024856567383 0.0 0.0002435861388221383 -0.017810675147964604 7.036928525425618 -4.092047214508057 0.0 0.0 8.151198387145996" Properties=species:S:1:pos:R:3 pbc="T T T"
Sn       3.44205010       0.13382669       3.20464537
Pd       1.96589528       4.83415960      -1.90066698
Sn       0.51169055       0.14174733       1.16891788
Sn       1.97768207       0.13804845       6.26418977
Sn       3.43137727       4.53750468       3.70740434
Sn       0.50555465       2.78074825       4.72882604
Sn       3.43615456       2.78224605      -0.36039068
Pd       1.97067748       2.48248670       2.18676101
Pd       0.51290052       0.13808292       3.81434161
Sn       4.90839391       0.14000238       6.26312238
Pd       3.44184686       0.14069887       0.56127422
Pd       3.43772199       2.24991348       5.04037204
Pd       0.50787294       2.25956842      -0.66719724
Sn       0.49976950       4.54034047       0.64938906
Pd       3.42846657       5.06088235       0.95744780
Pd       0.49457690       5.06314141       3.39729359
Pd       4.90102145       2.48210250       2.18571887
Pd       4.89521433       4.83513226      -1.90504362
4
Lattice="3.6128504276275635 0.0 1.1944056749343872 1.6164500844716647 3.2296434385834916 1.19209885597229 0.0 0.0 6.099328994750977" Properties=species:S:1:pos:R:3 pbc="T T T"
Ir       4.14130475       1.38403676       3.22973821
Ce       3.14162160       2.99787037       6.27760688
N        1.09428363       1.73477707       6.40940867
N        3.57338870       1.03582015       4.95459483
6
Lattice="4.182867050170898 0.0 -0.0020416013430804014 -2.1003598339808605 3.62108397981401 0.0004604186106007546 0.0 0.0 9.933207511901855" Properties=species:S:1:pos:R:3 pbc="T T T"
La       1.57175741       0.56400322       4.13520713
Zn       1.56522610       2.97317708       8.63435743
Er      -0.52289574       1.76914330       6.90997111
Zn       1.57164581       0.56160397       8.80409009
Er      -0.52548501       1.77039676       0.65811114
Cl       1.56382665       2.97829729       2.27865764
14
Lattice="6.458406925201416 0.0 0.006285970099270344 0.02639444221675381 5.800395994005324 -3.2884843349456787 0.0 0.0 6.683892726898193" Properties=species:S:1:pos:R:3 pbc="T T T"
Sr       6.42843232       5.40070314      -2.21795916
Sr       6.40967767       2.06384366       3.50928450
Sr       3.19906758       5.39414912      -2.21620112
N        4.64140170       3.97760846       2.73216579
Sr       5.55087711       3.11068152       0.27931006
Ga       1.82842267       1.74637607      -0.52068265
Sr       3.17787084       2.06795906       3.50958802
N        3.93858494       1.39021786      -0.72139802
Sr       2.32207943       4.36817196       1.01738643
Ga       5.06758330       5.73212908       1.81613483
N        1.41316048       3.49402789      -1.43700531
N        1.40631050       1.80198510       1.45457760
N        0.70274796       0.28619760       5.30780195
N        4.64778315       5.66676664      -0.16179351
20
Lattice="9.267258644104004 0.0 -2.6221907138824463 -3.9844868100519757 8.276029850677954 -3.22300124168396 0.0 0.0 9.850167274475098" Properties=species:S:1:pos:R:3 pbc="T T T"
I       -1.94211385       5.15056430       6.12947167
I        1.28468381       1.06432421       0.65148019
Mo       3.06586875       2.91599052       7.06398790
Tl       3.65664407       5.67885747      -3.63171456
Mo       1.02604000       3.36505716      -1.02630956
H        1.13175817       2.75994075       7.00236606
I        1.15670033       4.60620271       3.54978798
Mo       1.24903904       2.22201166       5.14462376
I        0.84517006       6.22769024      -1.21908227
I        4.14802727       0.43079734       7.96111827
I        7.76446375       1.56901248       1.76811026
Tl      -2.14113785       4.45906323       2.84333729
I        3.71146757       3.92315761      -0.21082738
I        4.04538351       2.27298848       4.50341112
Mo       1.33787960       0.93270863       7.62280364
Mo      -0.82699539       2.57400798       6.94782697
I       -2.42237507       7.72922302       1.91884226
I        7.52360205       3.35852008      -2.97782346
Mo       0.90534877       4.56800086       6.37296198
I        4.02612167       8.15004412       1.96196188
5
Lattice="3.196070671081543 0.0 -0.0022850048262625933 -1.593224801771882 2.7709865407499317 -0.0001651283382670954 0.0 0.0 12.72849178314209" Properties=species:S:1:pos:R:3 pbc="T T T"
Hf       0.26374114       1.10261597       7.20508592
Hf       1.85921603       0.17933727       9.71465081
Hf       1.86141093       0.17910146       4.67700826
Hf       0.26569658       1.10083005       2.15392104
Zr       1.86529158       2.02436715      12.30277779
4
Lattice="3.4575068950653076 0.0 -1.1071641445159912 -0.6248983401831651 4.415586272477562 -1.9601820707321167 0.0 0.0 6.039358139038086" Properties=species:S:1:pos:R:3 pbc="T T T"
Sc       0.51419484       2.31061468       0.09791052
Tl       1.82968607       4.36355293      -1.75529809
Tl       1.49597349       1.14871997       3.21324918
Zn       2.86398312       3.27933372       1.51512383
4
Lattice="4.16067361831665 0.0 0.004780677612870932 -0.007147170473901213 4.162787023930985 0.005253551993519068 0.0 0.0 8.00997543334961" Properties=species:S:1:pos:R:3 pbc="T T T"
K        0.62435547       2.65049825       7.74113973
Hg       2.70829164       0.56908061       1.90658776
K        0.62665932       2.65015535       4.08529290
Au       2.70865330       0.56903346       5.91049720
4
Lattice="4.146646499633789 0.0 0.01776871085166931 0.0005147400628172575 6.861678104167085 0.003694497048854828 0.0 0.0 7.264699935913086" Properties=species:S:1:pos:R:3 pbc="T T T"
Ba       2.02138418       6.74097596       6.89522593
Ba       4.09327356       3.30976310       1.00378418
Ca       4.09430284       6.73773760       3.34279297
Ca       2.01999182       3.30637688       4.55165188
8
Lattice="4.154008388519287 0.0 1.3448021411895752 1.5707421389213032 6.576388782866772 2.2946457862854004 0.0 0.0 7.151389122009277" Properties=species:S:1:pos:R:3 pbc="T T T"
Mg       4.29619790       3.81335796       2.73288428
Sr       3.51037356       0.52634050       5.16137721
Mg       2.10776959       6.06239282       2.42157116
Mg       2.91426211       4.00938176       7.04378958
Zn       0.81044808       2.11057224       6.44108893
Mg       2.33172929       1.56498683       1.69830130
Zn       3.62563803       5.51678928       4.82917889
Mg       1.52241123       3.61933719       4.22737185
4
Lattice="4.3996758460998535 0.0 0.008632796816527843 -2.204989409980271 3.8104175572343486 -0.003221469232812524 0.0 0.0 7.2309346199035645" Properties=species:S:1:pos:R:3 pbc="T T T"
Al       2.01097076       1.87498475       1.29938192
Al      -0.19316650       3.14649384       4.91454433
Sb      -0.19448043       3.14637573       2.20437365
Sb       2.01046299       1.87436403       5.82429177
16
Lattice="5.564422130584717 0.0 -0.0011491321492940187 0.0028146964868464197 7.697081528049936 0.004188342485576868 0.0 0.0 9.02278995513916" Properties=species:S:1:pos:R:3 pbc="T T T"
Pr       3.96060022       7.13664422       5.16069513
Ba       1.05199208       5.88829295       2.86596337
Ba       1.05236652       5.89120622       7.45699785
O        1.02344354       7.55409300       0.65328548
Ba       3.82928991       3.37634280       2.94342143
O        3.78801882       6.11004973       3.10860956
Ba       1.04824004       2.04477837       5.15992913
O        3.51900551       2.09713730       0.64871248
O        1.02422768       3.15233570       2.71612285
O        0.73438177       7.15131744       5.15945750
Pr       1.17215035       2.13783469       0.64699434
O        3.79373630       6.11066771       7.21466476
Ba       3.83238591       3.36974506       7.38602162
O        3.79874006       1.71982035       5.15749772
Ba       3.83713419       7.22300301       0.65178354
O        1.01981561       3.15366938       7.60731369
9
Lattice="5.464277267456055 0.0 0.002824199851602316 0.0023466633487260642 7.559119813971998 -4.5329508781433105 0.0 0.0 9.118576049804688" Properties=species:S:1:pos:R:3 pbc="T T T"
Cs       0.37671008       0.31304849       3.16872691
Rb       3.10851202       4.78840578      -0.89927662
Ba       0.37659339       5.87214532       2.23339823
Ba       0.37870031       2.32511941       6.77822953
Rb       3.10801281       0.33611450       0.32353770
Rb       3.10869786       3.41569032       3.66133679
As       0.37540956       5.17141984       5.39481876
As       0.37758437       3.02874154       0.81445255
As       3.10782425       0.31938430       5.90222020
16
Lattice="6.532833576202393 0.0 -0.00019186407735105604 0.017071757631149806 10.834673783340241 -3.0541937351226807 0.0 0.0 11.452016830444336" Properties=species:S:1:pos:R:3 pbc="T T T"
Zn       5.95792474       1.46717964       6.58836303
As       1.29660422       6.37200551       5.73280471
Cs       4.56081175      10.70019950       0.33631002
Cs       1.29615647       5.94981644       9.64161126
Cs       4.55418794       2.64860352       9.74811357
Cs       4.56297485       6.23243201       3.45387904
Cs       4.56341584       7.75362659       7.05230025
As       1.28999222       2.63754764       7.84712591
Zn       3.13446615       1.47375934       6.57340417
As       4.55461382       3.17516370       5.15650875
Cs       1.30160617      10.43085958       6.54203112
Cs       1.28330919       3.17431932       3.26843661
Zn       6.42550918       4.35391576       6.41911074
Zn       2.69275989       4.35192444       6.42084450
As       4.56423035      10.31157573       4.26502739
Cs       1.30102878       8.93659150       2.94136429
9
Lattice="6.34532356262207 0.0 -2.0077104568481445 -1.1784201943467003 7.2779793560307615 -2.097499132156372 0.0 0.0 9.544868469238281" Properties=species:S:1:pos:R:3 pbc="T T T"
Pb       1.32136960       2.93573236       5.39175773
I        5.78690616       2.12952574       5.95398079
I       -0.44021485       5.65670528       4.59926682
Rb      -0.14787481       4.78445565       1.03583427
Rb       2.80361459       1.08288330       0.19707783
I        3.08328307       0.21395865       6.17637582
I        2.53698708       4.62386889      -1.65524106
I        3.20010314       3.73450016       2.82076776
I        0.11683153       1.24490865       2.89681185
10
Lattice="4.270140647888184 0.0 -0.0011786153772845864 -2.1227566342594746 4.46547065253067 -0.10237263143062592 0.0 0.0 9.691732406616211" Properties=species:S:1:pos:R:3 pbc="T T T"
Sb      -0.46393804       2.83697863       0.65134529
Li       1.66383959       0.96495577       1.89406623
Ag       3.80049246       0.12969022       9.53597105
Li       1.67191740       3.56607331       2.68599911
Li       1.66901515       1.86428870       8.58411822
Li       1.66922630       2.67789898       5.69042458
Ag       3.79951770       0.89151873       6.73394495
Ag      -0.46074541       3.64873176       7.53871642
Sb      -0.46835522       1.69755648       3.92616968
Ag      -0.46320092       4.40830660       4.73665084
10
Lattice="3.461688756942749 0.0 0.7731402516365051 1.6098965838903605 6.040666668013972 0.9364158511161804 0.0 0.0 8.107194900512695" Properties=species:S:1:pos:R:3 pbc="T T T"
Ti       1.23481087       1.68688549       0.62746528
N        1.60568473       2.68271169       7.09660482
N        2.92413770       5.71649944       1.22269114
Pr       2.37321585       0.52168107       3.68506666
N        2.65646533       5.74463317       2.44444317
N        2.81841440       1.92545796       1.71596337
Pr       1.61428676       5.27297252       7.07770311
Ti       3.54335431       2.69842165       6.57664737
N        3.64363102       4.55538786       6.12415255
N        0.33197127       1.21616134       4.66318029
11
Lattice="3.459240436553955 0.0 -0.38099581003189087 -0.10073106279690543 5.029807994673677 -0.7973255515098572 0.0 0.0 16.371538162231445" Properties=species:S:1:pos:R:3 pbc="T T T"
Tl       0.26261023       0.16066660       1.16894322
Tl       3.21283122       1.98620984      12.46713547
Er       1.79994479       2.45992054      15.61478261
Er       1.27636647       4.26594958      10.76563269
Sc       2.89712266       1.51661404       9.51321476
Sc       2.69203187       3.80064092       7.67686403
Tl       2.38345385       3.33814978       4.74997937
Sc       3.31425817       4.72592570      13.46907562
Sc       0.38408670       2.93255796       2.36862308
Er       0.85216338       1.04288355       6.73261686
Sc       2.26331436       0.56835319       3.53555677
3
Lattice="3.970019578933716 0.0 2.2958250045776367 1.3185498041787727 3.741120767629353 2.286813735961914 0.0 0.0 4.586031436920166" Properties=species:S:1:pos:R:3 pbc="T T T"
Mg       3.18794429       3.57544724       7.71065767
Pd       3.19191839       0.77025049       3.13167771
Pb       4.51370706       1.70381016       5.42177066
8
Lattice="6.335531711578369 0.0 -2.7200942039489746 -2.757280231069359 5.702901761717675 -2.713393211364746 0.0 0.0 6.912891864776611" Properties=species:S:1:pos:R:3 pbc="T T T"
Rb       5.33447341       0.05341468       3.95640017
Li       0.79116271       2.90700085       3.95808535
Rb      -1.48902725       4.32968436       0.50151401
Se      -0.42544767       5.18250686      -2.90540137
Se       5.26694080       1.51861386       0.09247228
Se       1.84649188       3.01312710      -0.58959272
P        3.05980555       1.48118738       0.49838446
Se       2.80751492       1.90361103       2.68991471
4
Lattice="2.669004440307617 0.0 0.5638823509216309 1.2782685400265088 2.3431574381511693 0.5640837550163269 0.0 0.0 6.639439582824707" Properties=species:S:1:pos:R:3 pbc="T T T"
Cu       1.33032510       2.19565969       2.65792059
Ni       0.94244383       0.38171809       4.50098007
H        2.41066632       1.25412294       4.15239862
Pt       1.81000500       0.89852786       7.00087296
8
Lattice="4.143247604370117 0.0 0.0035945228300988674 0.00891812005872662 6.998404542702797 -2.350248098373413 0.0 0.0 7.340855121612549" Properties=species:S:1:pos:R:3 pbc="T T T"
Pb       2.56272701       5.08366079      -1.20363239
S        2.56204048       3.12554246       1.17077632
Pb       0.49345358       4.99973650       2.36860134
Ca       2.55903536       1.33939227       3.47653710
Hg       0.49170610       3.24838693       4.84239445
Ca       0.48880941       1.42695337       0.01264166
S        0.49356710       6.85050931       0.02469313
S        2.56579487       6.90373103       3.65434596
10
Lattice="4.108595371246338 0.0 0.004472028464078903 0.006661987095266453 4.107394537790488 0.004841875284910202 0.0 0.0 9.999391555786133" Properties=species:S:1:pos:R:3 pbc="T T T"
Si       4.05621543       0.23591331       2.58028007
Si       4.05846633       2.28968249       8.87113450
Y        2.00419784       2.28956498       1.34509010
Si       2.00484998       2.28986758       5.15848872
Cu       2.00106502       0.23560341       8.86427152
Ir       2.00146458       0.23621774       3.86827365
Ir       4.05989094       2.29063876       3.87175133
Y        4.05656882       0.23697391       6.39319813
Ir       2.00491801       2.28930376       7.50944314
Ir       4.05565424       0.23491550       0.23138484
12
Lattice="5.938690662384033 0.0 0.00737726129591465 0.0021211822654453633 6.365359429742913 0.02825571596622467 0.0 0.0 11.03177547454834" Properties=species:S:1:pos:R:3 pbc="T T T"
La       0.88822437       1.76184579       9.45454244
La       3.85864695       0.65773506       7.63390062
La       0.88751253       4.91824696       3.95042609
Y        3.85802690       0.68461638       3.92916833
Y        0.89008831       4.93498631       0.26912642
Sm       3.85810984       3.86843071       5.79904997
La       3.85897154       3.84438705       2.10310991
Dy       0.88716418       1.73756178       2.09927404
Sm       3.85695252       0.69183565       0.25060393
Dy       3.85826925       3.86772122       9.46126987
Dy       0.88978985       4.92100106       7.63585298
Y        0.88968945       1.74268716       5.77695371
12
Lattice="3.665426731109619 0.0 0.003556200535967946 0.0010976161717506237 8.332548069187004 -2.0414071083068848 0.0 0.0 13.21828556060791" Properties=species:S:1:pos:R:3 pbc="T T T"
Tb       1.21794220       8.07523225       6.26065027
Tb       3.04940791       2.08498434       6.32285002
Sm       3.05042348       7.59378434       9.33827372
Er       3.04942030       5.34688807       4.81405853
La       3.05055597       2.59057680       9.83492241
Tb       3.05042714       4.87995054       1.18201107
Sm       1.21785982       7.59996327       2.75388466
Tb       1.21756987       2.07168407      -0.29075921
Tb       1.21706602       5.33625163      11.39677891
Er       1.21729966       4.89496205       7.76656951
Tb       3.05098143       8.08107990      -0.33465108
La       1.21802189       2.58660651       3.25479020
20
Lattice="8.217692375183105 0.0 -1.870507001876831 -2.4439129373124056 7.541708407902871 -1.9262369871139526 0.0 0.0 8.370718002319336" Properties=species:S:1:pos:R:3 pbc="T T T"
Ag       7.47584632       1.56557785       5.29068574
Hg      -0.26209059       2.46611679       1.89893248
Ag       6.24905793       4.58632773       1.24304500
Ag       0.65423566       0.07615295       4.98468113
Ag       2.53232984       1.77406843       6.54072232
Hg       5.33794405       2.90197468      -1.51833962
Hg       1.34866265       0.33726423       0.41633075
Ag       0.92208394       3.82119020      -0.49056210
Cs       3.29142546       6.89430219      -1.26510904
Hg       3.35217500       4.07073676       4.70405895
Hg       4.52905148       6.26864378       2.85583276
Hg       0.36974599       6.25697647       4.58818253
Hg       6.51177557       4.81419165       4.70706922
Hg       3.52956954       3.13829476       0.77447932
Hg       1.77989385       5.12260296       2.12202462
Hg       0.42340612       3.13582059       4.84156767
Hg       2.63827915       1.30228393       3.13206557
Hg       5.63103939       2.23645748       2.94467736
Ag       4.71554426       0.46156396       5.09764432
Hg      -0.78219310       5.93327740       0.83656111
15
Lattice="8.862253189086914 0.0 -3.470583915710449 -4.603289951703573 7.665005599201879 -3.5525355339050293 0.0 0.0 9.172218322753906" Properties=species:S:1:pos:R:3 pbc="T T T"
Cs       3.74620277       5.22840630       1.03255776
Cs       3.97041094       5.08395727      -3.57124159
Cl       1.21956621       4.53172213       3.79905020
Ag       6.31494206       1.32472305      -1.65910245
Cl      -3.16326670       7.12272154      -2.18805884
Cu      -0.32642048       5.37693015       2.51607658
Cl      -2.44073550       5.37046087       2.10472753
Cs       2.08246328       1.13653809       4.53660692
Cs      -0.50869270       5.00273402      -1.93402999
Cl       5.21681125       2.94152876       3.33961396
Cu       6.13920963       0.97499859       3.04968549
Cl       2.24984750       3.05755613      -1.48547473
Ag       1.84504888       1.26976810      -0.03898710
Cl       0.58147832       6.93945320       0.88205882
Cl       3.09013286       7.62019077      -1.62081341
10
Lattice="5.105598449707031 0.0 1.496319055557251 2.331351883738535 6.7219350169961976 1.2160890102386475 0.0 0.0 8.04053020477295" Properties=species:S:1:pos:R:3 pbc="T T T"
Au       5.21299410       4.41904944       9.82200891
Cl       5.67267957       6.59673643       9.23314636
Cl       4.76540006       2.21367594       2.34653241
H        4.19443623       5.89564087       4.69555773
Cl       4.87211203       6.36460809       5.72658462
Cl       4.82948178       2.42921462       5.85445984
Cl       3.30941913       5.10463832       2.90514371
H        4.89909007       2.24146782       4.54614251
Na       1.09033298       0.97616148       6.60057856
Cl       1.98939176       3.69068025       7.21457267
6
Lattice="4.293696880340576 0.0 0.0036149993538856506 -2.138716651425114 3.722323032867542 0.0007265182794071734 0.0 0.0 7.424661636352539" Properties=species:S:1:pos:R:3 pbc="T T T"
Li       0.32662294       3.66564115       6.20487584
Li       2.46897855       2.42429113       2.29457432
Ca       0.32013009       1.18413232       0.53409359
Sm       0.31981028       1.18412068       4.24700491
Rh       2.46926654       2.42409278       5.96704085
Rh       0.32472461       3.66692732       2.53152094
6
Lattice="4.2810492515563965 0.0 0.00031316213426180184 -2.1392695765788123 3.706424246372047 0.0010721593862399459 0.0 0.0 10.539673805236816" Properties=species:S:1:pos:R:3 pbc="T T T"
Ca       1.75044855       2.52789018       8.78790716
Ca       1.74793552       0.05799545       3.44468450
Sb      -0.39164418       1.29224904       1.38194426
Ge      -0.39368288       1.29173419       6.81854578
Ge       1.75153368       0.05548233       0.06779099
Sb       1.74864079       2.52788377       5.52745942
8
Lattice="5.125272750854492 0.0 -2.288398504257202 -1.0201259986569797 5.021544786240719 -2.2911131381988525 0.0 0.0 6.885558605194092" Properties=species:S:1:pos:R:3 pbc="T T T"
Y        4.80527794       1.03431252      -1.97373237
Y        0.18705326       4.78928494       1.44719990
Y        1.71548167       3.52398179      -2.01588946
Y        3.26155503       2.27807571       1.44499212
S        2.74994343       4.79011313       0.30225952
Si       0.69920216       2.27888579       2.59147570
S        4.28510058       3.53420165      -3.14034468
S        2.23276316       1.02398432      -0.85130685
8
Lattice="4.0518012046813965 0.0 0.001525175990536809 0.002128152642877774 4.055262960872846 0.003076824126765132 0.0 0.0 11.049456596374512" Properties=species:S:1:pos:R:3 pbc="T T T"
Dy       0.28099064       2.25920898      10.44140552
Rb       0.28215113       2.25689459       4.91570974
P        2.30742318       0.22880589       2.73570411
P        2.30783987       0.22943469       7.09277022
Pt       2.30743590       2.25765743       1.55323480
Pt       0.28008353       0.23052552       8.28188990
Pt       0.28147312       0.23107976       1.54525999
Pt       2.30771955       2.25742805       8.27758683
11
Lattice="5.103705883026123 0.0 -1.5029839277267456 -0.6917338539648208 6.483616005805068 -2.398827314376831 0.0 0.0 9.313127517700195" Properties=species:S:1:pos:R:3 pbc="T T T"
Ho       4.61956326       1.17166035       4.97231316
Ho       3.66529982       2.63173337       1.75181550
Ho       0.47180706       3.52289776       0.33254269
Ho       1.07704049       0.43076406       2.40186677
Ho       1.33874183       5.45511643       3.22313500
Ho       2.62041189       2.18181961       7.56683116
Tl       3.28152757       5.38548522       0.42773335
Ho       2.38204399       5.90850267      -2.59335260
Os       0.29834435       0.80029513      -0.21767993
Tl       1.71945055       2.70422492       4.53467726
Ho       4.53049279       4.56127122       4.64024738
4
Lattice="4.772583484649658 0.0 0.01198958046734333 0.018975864009785147 4.78868158004994 0.02688814140856266 0.0 0.0 4.780763626098633" Properties=species:S:1:pos:R:3 pbc="T T T"
Y        1.21326254       3.71063613       4.53680309
Dy       1.20412829       1.31764556       2.13366927
Al       3.59945259       3.71128491       2.15242458
Ho       3.58992029       1.31601277       4.52927720
3
Lattice="3.849515199661255 0.0 -0.000604995817411691 -1.9238908915809818 3.3356167251865565 -0.00209980015642941 0.0 0.0 3.9035990238189697" Properties=species:S:1:pos:R:3 pbc="T T T"
Y        0.87329862       2.23348863       0.38013081
H        0.87090792       0.01124238       0.38308160
Se       2.79610620       1.12196578       2.33450962
3
Lattice="3.357825994491577 0.0 -1.1900025606155396 -0.4207811700921343 3.333167863584311 -1.1923949718475342 0.0 0.0 5.323093414306641" Properties=species:S:1:pos:R:3 pbc="T T T"
Ag       3.20429751       0.01974405       0.94243404
Li       0.89037981       1.20417975      -0.25184523
Tl       1.84891962       2.29306897       2.44376118
3
Lattice="2.8094146251678467 0.0 -0.48553258180618286 -0.5452602378256727 2.7548619511220753 -0.493429958820343 0.0 0.0 6.9631266593933105" Properties=species:S:1:pos:R:3 pbc="T T T"
Ta       2.16414642       0.53856332       4.34352949
Au       0.86344330       2.37123254      -0.47127648
Ta       0.10553178       1.45151359       2.16799207
3
Lattice="3.0483765602111816 0.0 -0.9588090777397156 -0.30190493302566274 3.0352520768395985 -0.9593372344970703 0.0 0.0 5.323981285095215" Properties=species:S:1:pos:R:3 pbc="T T T"
Ta       1.15678966       0.86292886       1.36606730
Mo       2.06191365       1.86427841      -1.08038614
Mo      -0.05054455       2.89812583       2.85599046
7
Lattice="3.6956660747528076 0.0 0.0012633580481633544 -0.0023420985788034816 5.823662763750598 -0.001475503551773727 0.0 0.0 7.777329921722412" Properties=species:S:1:pos:R:3 pbc="T T T"
Y        0.41018676       4.08459026       6.46371156
In       2.25803432       5.57157087       4.22086983
Y        0.41078618       1.17234850       1.89579619
In       2.25818290       4.08419420       1.27175380
In       2.26029633       2.59201828       4.22699643
In       2.26033869       1.17160419       7.00511913
Co       0.41053177       4.08206047       3.11360349
8
Lattice="5.415572643280029 0.0 -0.007664000149816275 -0.021001544290785996 6.034732991316384 -3.5123090744018555 0.0 0.0 6.982526779174805" Properties=species:S:1:pos:R:3 pbc="T T T"
Ca       3.25969271       3.82481611       3.39606309
Tl       0.54529100       5.85659106       3.38619966
Tl       3.26929099       0.80827206       5.15593043
Sm       0.54607498       5.83551599      -0.09730793
Tl       3.26140381       3.82482438      -0.09595835
Tl       0.55751601       2.80467466       5.16704444
Tl       0.55677209       2.81091291       1.63702667
Tl       3.26989983       0.81122626       1.65276903
4
Lattice="3.8759546279907227 0.0 2.23837947845459 1.2909753594613982 3.65679280842118 2.2362403869628906 0.0 0.0 4.476207733154297" Properties=species:S:1:pos:R:3 pbc="T T T"
Al       4.89352857       3.55667967       7.62899322
Sc       2.30961886       1.72742994       3.15324208
Li       3.60066919       2.64284742       5.39050939
Pt       1.01675763       0.81273980       5.38973634
4
Lattice="4.3600993156433105 0.0 2.512122869491577 1.452042368316938 4.109577001882378 2.511955499649048 0.0 0.0 5.030454635620117" Properties=species:S:1:pos:R:3 pbc="T T T"
Pd       3.14447516       0.88526833       2.26858948
Pr       3.14329447       3.96704949       7.29606952
Pd       1.69015724       2.93904531       4.78160454
Tm       4.59672129       1.91220281       4.78031175
7
Lattice="3.8262555599212646 0.0 -0.9819254875183105 0.3428389456016306 4.3958091124430885 1.3361798524856567 0.0 0.0 7.93717622756958" Properties=species:S:1:pos:R:3 pbc="T T T"
Y        2.99747105       1.23751503       2.51006492
Al       2.18474000       2.26028667       7.29858629
Al       1.52451714       3.09262871       4.72188794
Fe       1.68549323       0.47784141       5.34186881
Fe       3.68908414       1.64633783       5.20330964
Y        0.71262014       4.11718936       1.56550936
Fe       3.84836357       3.70496356       5.83470927
15
Lattice="8.306207656860352 0.0 4.813075065612793 2.7787341011564877 7.554160535857366 4.812067985534668 0.0 0.0 9.599300384521484" Properties=species:S:1:pos:R:3 pbc="T T T"
Bi       5.84149819       3.60726378      11.19250616
Ba       5.84103249       3.60010257       6.38677748
Ca       7.23217091       7.38474951      13.59513903
Te       4.58028252       5.55045572      13.37493554
Ba       1.68550629       3.60762827       3.98589196
Ca       3.07462388       7.38471349      11.18873966
Te       8.36630725       5.55308796      11.19428550
Ba       1.68763278       3.60570677       8.77889055
Ca       7.22857891       7.38252701       8.79474261
Te       7.10278078       1.65980549       9.00203058
Te       3.06715142       1.53132810       6.37955161
Te       4.58437924       5.55409204       9.00641795
Te       3.31768984       1.66138749      11.18543537
Te       7.09709704       1.66288596      13.37296590
Te       8.61081923       5.68260568      15.99576989
5
Lattice="3.4546897411346436 0.0 -0.9821046590805054 -0.3646085291898091 3.8890605187932383 -1.312874436378479 0.0 0.0 6.5350661277771" Properties=species:S:1:pos:R:3 pbc="T T T"
Hf       0.09186545       0.55084413       2.18460289
Hf       2.07801297       3.05469265       2.57778696
Se       0.90188340       3.74198698      -1.54232163
N        2.11813474       0.92934850       2.73505242
N        0.05074000       2.67573562       2.02045063
12
Lattice="5.895662784576416 0.0 -1.5025259256362915 -0.40824393327545777 6.034106831522792 -1.585884690284729 0.0 0.0 12.336825370788574" Properties=species:S:1:pos:R:3 pbc="T T T"
Cs       1.92904464       2.53833717       2.20286720
Cs       4.67489492       5.52257351       0.65886587
Fe       5.68276354       0.17086232      10.74922335
Cs       0.18811173       3.84290042       7.65280007
Se       1.26510089       5.11556517      -0.41534001
Fe       2.73660383       0.16988278      11.50532090
Se       3.58373481       4.42740352       8.67865212
Se       4.42759967       1.95064244      -0.33567544
Se       0.84934228       1.26084612      10.25483541
Cs       3.33274111       0.84369571       7.66911815
Li       5.48076755       3.18772433       9.96955528
Li       2.53030024       3.19000962      10.71202527
12
Lattice="4.56142520904541 0.0 -0.04947055131196976 -0.0035239411332629407 5.121432999359376 1.9214831590652466 0.0 0.0 5.556589126586914" Properties=species:S:1:pos:R:3 pbc="T T T"
Mn       2.75268454       1.29951186       0.62064795
Ir       0.47349289       1.29954208       3.42771185
O        3.68644687       0.47523971       2.27846826
O        1.31117402       2.03786467       1.80132778
O        4.19776559       0.56841332       5.01123534
Ir       2.75242549       3.86148238       4.36315143
O        1.81879559       2.12524385       4.52483198
O        1.40988321       4.68613725       5.48089469
Mn       0.47033944       3.86458810       1.61128110
O        1.90401351       4.59976573       2.74835470
O        3.59984209       3.13329065       5.97467427
O        4.08950439       3.03509056       3.24702668
4
Lattice="4.367185115814209 0.0 2.520360231399536 1.4567556761087268 4.118067839029039 2.520630121231079 0.0 0.0 5.042205810546875" Properties=species:S:1:pos:R:3 pbc="T T T"
Nd       4.06929550       1.92732372       5.07956098
Sm       2.61183650       3.98502702       7.59615227
Os       1.15605893       2.95449706       5.07687147
Zn       2.61242205       0.89716925       2.55672541
18
Lattice="4.395906925201416 0.0 -0.007520072627812624 -0.007582698867965444 10.455161205978863 1.2193939685821533 0.0 0.0 13.855385780334473" Properties=species:S:1:pos:R:3 pbc="T T T"
Br       1.26505095       4.98151513      10.43323243
Br       1.26675213       4.56419586       6.06140477
Pb       1.26993891       0.06687955      10.97316191
Pb       1.26936310       3.90254698      13.26078515
Br       3.46122833       7.19486364       8.04246524
Li       1.26939082       1.73264054       5.75106706
Br       3.46810838       1.86062893      12.37900745
Sn       1.26456392       7.44513618       6.02721627
Br       3.46283842       8.61358651      11.63900608
Br       1.27042343       2.24852883       2.14278762
Pb       3.47323621       0.19891248       2.06525581
Br       3.46772523       0.60749534       4.99179040
Li       3.46687000       7.94531981      14.10181898
Pb       3.46574051       4.12260575       8.44997173
Br       3.46586102       5.49365502       0.65018978
Br       1.26761411       1.66885051       8.31780263
Br       3.46438204       7.53471339       3.97460836
Br       1.26355881       9.13682080       1.10855362
4
Lattice="4.598048210144043 0.0 2.653799057006836 1.5334027925178475 4.335619854324406 2.654601812362671 0.0 0.0 5.308766841888428" Properties=species:S:1:pos:R:3 pbc="T T T"
Pb       4.06532295       1.15579400       6.92647844
Cd       2.53288097       3.32330816       4.27318714
Lu       2.53219369       0.07146249       4.27190574
Y        1.00019064       2.23914271       1.61773133
4
Lattice="4.697997570037842 0.0 2.7059242725372314 1.5618203964384345 4.4292052338486325 2.7115530967712402 0.0 0.0 5.421738147735596" Properties=species:S:1:pos:R:3 pbc="T T T"
Mg       5.86574020       4.30295511       7.52326156
Tb       1.17201246       0.98237528       4.81704001
Pr       4.30135095       3.19588057       4.81394493
Cd       2.73665918       2.08842258       7.52592223
10
Lattice="4.068554401397705 0.0 0.002953045303002 0.0033853581150862333 7.228340309842117 -0.00015369597531389445 0.0 0.0 7.227160930633545" Properties=species:S:1:pos:R:3 pbc="T T T"
Rh       0.10561327       0.91315604       2.46470505
Nd       2.13848713       2.29084986       3.84209759
Rh       0.10219865       7.20198222       5.13741702
Rh       0.10700593       4.52955957       4.19899155
Nd       2.14172217       4.88502458       6.43904811
Rh       0.10875877       3.58942298       1.52322162
Rh       0.10603388       2.64367833       6.07844961
Nd       2.14222735       5.90309975       2.82152814
Nd       2.14028529       1.27231585       0.22785380
Rh       0.10851649       6.26514631       0.58789670
12
Lattice="7.183706760406494 0.0 -0.15450115501880646 0.8559438016643521 7.698665260176613 0.6731988191604614 0.0 0.0 11.072715759277344" Properties=species:S:1:pos:R:3 pbc="T T T"
Er       3.16877153       1.86853864       7.81665771
Ge       7.67378495       6.07312383      10.21711608
Cs       3.16843224       1.87347248       2.27680595
I        1.89922416       6.45563018       1.54982663
I        4.91055351       0.62469319       9.98197461
Ge       6.69149846       5.37319903       5.92613653
I        5.06943771       4.28053677       7.92707366
I        1.61407276       3.11918808      10.00521663
I        2.12650822       7.16339075       8.37685474
I        1.42220980       3.12432038       5.64870613
I        4.72825575       0.62427722       5.61290564
I        5.27750610       4.99051830       3.66943607
12
Lattice="4.68060302734375 0.0 -0.029973160475492477 -0.05624606944935356 6.159722072979315 -0.037512343376874924 0.0 0.0 10.602023124694824" Properties=species:S:1:pos:R:3 pbc="T T T"
Li       2.75660642       5.87307491       6.26073930
Li       0.45970413       1.24881902       1.89686127
Sr       2.78516236       2.78980086       4.54121946
Li       0.45776683       1.24921058       7.21059536
Li       0.43159561       4.32950375       1.88293404
Li       2.78604804       2.78901737       0.97888604
Li       0.44447727       2.79067229       9.84383359
Sr       2.75689937       5.86818450       9.80727836
Li       2.78592024       2.79079161       8.08629374
Li       0.42958773       4.33148415       7.18891657
Li       2.75447604       5.87561557       2.75822300
Li       0.41662000       5.87436433       4.52203896
8
Lattice="6.507750511169434 0.0 -2.318906545639038 -3.262433794190117 5.627983762242558 -2.2825961112976074 0.0 0.0 6.903308391571045" Properties=species:S:1:pos:R:3 pbc="T T T"
Tl      -0.43670197       3.71933553       0.94663382
Tl       2.81833372       3.71713059       3.24229760
Tl       4.44677075       0.91157973       0.92403908
Se       5.56828092       0.90345043       3.97457602
Se       1.18686880       0.90177274       3.28167221
Se       2.24737584       2.74455023      -0.61092255
P        1.18747355       0.90430340       5.53878158
Se      -1.00467788       4.69178036       4.00175100
10
Lattice="4.761701583862305 0.0 -1.423858642578125 -0.8661478184952294 4.860314108451506 -0.0021041855216026306 0.0 0.0 5.682201385498047" Properties=species:S:1:pos:R:3 pbc="T T T"
Pt       4.17587911       2.62927875       2.00916562
H        0.37607697       1.09681757       0.58648963
Pt       2.12229834       1.38577006       0.59625273
Pt       4.55122240       0.05547146       0.58534144
Pt       4.55106946       0.05041945       3.42836667
H        0.38751605       1.09427504       3.44392760
Pt       4.17184620       2.62909306      -0.83256501
Pt       1.55095257       3.77543742       2.00860644
Pt       1.55184595       3.78011546       4.85449978
Pt       2.12405629       1.37567454       3.42732164
11
Lattice="3.9261844158172607 0.0 7.316983101190999e-06 -1.9598073015094997 3.4017036432034335 0.00044396021985448897 0.0 0.0 14.676412582397461" Properties=species:S:1:pos:R:3 pbc="T T T"
Cu       0.22977962       3.28725625      14.07418700
Ca       2.19230020       2.15440518       1.41449583
Cu       0.22720613       1.02104053       3.80689236
P        0.22571088       1.02195639       6.08294758
Ca       2.19363035       2.15414768      11.96930996
P        0.23020399       3.28674956       3.24799288
P        0.23168107       3.28779680       9.95242255
Cu       0.22852767       1.01973934       9.87945331
Ni       0.22943118       3.28788460       5.47275658
Ca       2.19264618       2.15390376       7.86679324
P        0.22834774       1.02122920      14.00472853
6
Lattice="4.7364044189453125 0.0 1.0932245254516602 1.7384004194379088 4.415247824453283 1.115241289138794 0.0 0.0 6.441478729248047" Properties=species:S:1:pos:R:3 pbc="T T T"
Cd       4.70431398       3.52389901       2.46556561
Hg       2.56102816       2.06494274       7.07527700
Cd       4.68770693       3.51342382       5.55427695
Ag       2.55727563       2.06111192       3.84847600
Cd       0.40582834       0.59444334       5.22246585
Cd       0.42359376       0.60422936       2.14327564
2
Lattice="3.8518617153167725 0.0 -0.022158952429890633 -0.012649014299791025 3.852827527798092 -0.0224200040102005 0.0 0.0 3.850752592086792" Properties=species:S:1:pos:R:3 pbc="T T T"
In       3.13501030       2.10422784       3.56905013
Nd       1.21981066       0.17970838       1.66643346
15
Lattice="6.769278049468994 0.0 3.2327208518981934 2.6185279346642862 6.241954967557312 3.2311651706695557 0.0 0.0 8.705146789550781" Properties=species:S:1:pos:R:3 pbc="T T T"
Tl       7.53485283       2.51098762       4.67902041
Tl       8.84576851       5.63577545       6.29459736
Cr       5.45805163       5.63186595       9.02931576
Cr       4.14886965       2.51156913       7.41670044
V        7.53536084       2.51044331       9.03269880
Cr       8.84297726       5.63292183      10.64618442
Se       1.58705528       0.80639266       4.07441167
Se       4.95615379       0.79746338       5.72765006
Tl       4.15161927       2.51208200       3.06135920
Se       3.34304701       4.22547937       9.10870087
Se       6.27999461       3.92783939       7.30872073
Se       2.01811727       1.09599609       7.52341634
Se       6.71354979       4.21705468      10.75426213
Se       5.40674979       1.09737063       9.14244123
Se       2.89454715       3.92708711       5.69404136
3
Lattice="3.445099353790283 0.0 1.982718586921692 1.14675198119238 3.2469534364251094 1.983747959136963 0.0 0.0 3.9742095470428467" Properties=species:S:1:pos:R:3 pbc="T T T"
P        1.93925674       2.62704859       5.38097419
Ru       0.79018571       1.81437894       3.39398632
Pt       1.94082135       0.19225548       1.40644297
8
Lattice="4.3190836906433105 0.0 -0.000922844628803432 0.0014883466063769452 5.491271770956565 -2.0480141639709473 0.0 0.0 8.031603813171387" Properties=species:S:1:pos:R:3 pbc="T T T"
Dy       1.94714660       0.86401645       6.54764945
Ge       4.10643975       1.43386791       0.54101883
Dy       1.94658167       0.86882448       2.57282627
Dy       4.10643140       3.93245539      -1.46237193
Ge       1.94721354       3.36349665       4.54721321
Dy       4.10717760       3.93107056       2.51180617
Au       1.94773846       3.33361466       0.53606770
Au       4.10653228       1.46469925       4.54911806
4
Lattice="2.9420604705810547 0.0 0.007363974582403898 0.015192608379610615 2.940234033987511 0.0026665362529456615 0.0 0.0 8.447244644165039" Properties=species:S:1:pos:R:3 pbc="T T T"
Al       1.04751605       1.96198869       1.26488110
Ga       2.51295769       0.49251857       3.34148849
Ga       1.04995508       1.96155301       5.59290442
Ag       2.51420146       0.49220145       7.77739168
10
Lattice="4.861289978027344 0.0 -0.00017928137094713748 -0.004048721424231111 4.862466557066336 -0.005990912206470966 0.0 0.0 11.334789276123047" Properties=species:S:1:pos:R:3 pbc="T T T"
Ba       2.96144336       4.47243551       0.42946106
Zn       2.96249457       2.04242355       8.98235422
Zn       0.53277861       2.04138482       1.80753750
Zn       2.95857882       4.47524160       4.81773046
In       0.53208902       2.04282945      10.40254033
In       2.96193029       4.47261781       7.55243602
Ba       0.53292228       2.04169855       6.19764777
In       0.52978553       4.47391796       3.31108328
In       2.96301537       2.04194969       3.31499325
Ag       0.53032212       4.47278793       8.97988252
10
Lattice="4.377518177032471 0.0 -0.004625267814844847 -0.001419175079195869 4.376326807703024 -0.0014452972682192922 0.0 0.0 10.273098945617676" Properties=species:S:1:pos:R:3 pbc="T T T"
As       2.40968643       2.78788670       6.85376845
La       2.41032580       2.78833484       0.49537856
As       0.22137491       0.59982164       9.58647825
La       0.22098256       0.59951593       5.67341348
Pd       2.41194293       0.59997196       8.21940949
Ge       2.40988062       0.59995161       3.08522669
As       0.22159583       2.78788436       3.08432732
Pd       0.22103670       0.60005608       1.79531795
Pd       0.22144746       2.78810347       8.22117692
Pd       2.40938644       2.78766524       4.37570756
6
Lattice="3.234872579574585 0.0 -0.5764036774635315 0.050599571546664814 4.482646042067304 -0.04366263747215271 0.0 0.0 8.69334602355957" Properties=species:S:1:pos:R:3 pbc="T T T"
H        3.00906845       1.66766821       7.05460936
H        1.51240366       3.97306790       8.06453391
H        2.53611168       2.01359527       6.64957718
H        1.41616566       4.16852339       0.11772735
Bi       0.75408419       4.07251954       4.51482833
Bi       0.40792263       1.83517853       2.60006127
3
Lattice="4.110838413238525 0.0 2.3676280975341797 1.3705260714075957 3.8754471308176797 2.3668222427368164 0.0 0.0 4.741958141326904" Properties=species:S:1:pos:R:3 pbc="T T T"
Li       2.14816221       1.83283178       2.47912457
Bi       3.51829942       2.80155832       4.84639046
In       0.77833361       0.86327263       4.85052702
9
Lattice="7.318012714385986 0.0 -0.021253181621432304 -3.664169862844573 6.120921207796394 -0.6676002144813538 0.0 0.0 6.3031768798828125" Properties=species:S:1:pos:R:3 pbc="T T T"
La       1.90608460       3.55899641       1.29003165
La       5.56674881       0.14840863       5.32916010
La      -1.42183438       3.55022322       1.31944097
La       2.22982712       0.14152540       5.35804389
Co       3.89528677       4.91028520      -0.17617472
La       3.89622499       3.24924647       4.29461947
Pb       3.90236501       0.61806143       2.11228102
La       0.24495545       0.46099913       2.36418353
Pb       0.23946464       3.08652845       4.53442976
8
Lattice="4.48358154296875 0.0 0.014034879393875599 0.02191039949389453 5.376487909904773 -3.0553455352783203 0.0 0.0 6.183877944946289" Properties=species:S:1:pos:R:3 pbc="T T T"
Er       1.49126063       4.10826358       0.81917898
Zn       1.49223367       4.27358790      -2.26866817
Zn       1.47967506       1.34022546      -0.60662546
Zn       3.72484101       2.14834458       0.81449551
Er       3.72783862       2.31588506       3.90682672
Zn       3.73764514       5.08627827      -0.85150072
Zn       1.47964111       1.33815791       2.20318687
Zn       3.73788659       5.08801646       2.52190136
10
Lattice="4.41162109375 0.0 0.0025120615027844906 0.0030895115537840937 6.588143577954602 0.003855083603411913 0.0 0.0 6.590508937835693" Properties=species:S:1:pos:R:3 pbc="T T T"
Dy       2.30826252       5.51737453       2.13908950
Fe       0.10011166       0.06916946       4.29034098
Dy       2.30808864       4.50568165       5.43418445
Fe       0.10169909       3.36364871       0.99502044
Dy       2.30606978       1.20992397       6.44573222
Si       0.10106394       4.25760474       3.40034683
Si       0.10197576       5.76582135       0.10581034
Dy       2.30601449       2.22077445       3.15047736
Si       0.10024300       0.96347807       1.88714197
Si       0.10081844       2.47089901       5.18133632
4
Lattice="3.5686161518096924 0.0 -1.471665620803833 -0.5978566771441931 3.5145659173666557 -1.4659429788589478 0.0 0.0 5.068561553955078" Properties=species:S:1:pos:R:3 pbc="T T T"
Li       0.14611151       1.80613369       1.32905665
Au       2.22941336       0.05119633       1.32763249
Zn       2.67485445       2.68777708       2.39582838
Au       1.19133957       0.93021299       3.86586341
5
Lattice="3.87686824798584 0.0 0.7069064378738403 1.8772210009788641 3.3954646869806964 0.704214870929718 0.0 0.0 11.064794540405273" Properties=species:S:1:pos:R:3 pbc="T T T"
Zr       3.81869965       0.23538406       3.01117229
Si       2.09282061       1.50486608       1.48006202
Zr       4.24617370       2.77600608      11.72242996
I        0.76286399       0.71984109       8.80861717
I        3.42389387       2.29095896       5.21827619
19
Lattice="7.630890846252441 0.0 -2.5890417098999023 -4.005871160496041 6.718951712392318 -2.976775646209717 0.0 0.0 8.128755569458008" Properties=species:S:1:pos:R:3 pbc="T T T"
Ga       2.54709846       6.56839459      -0.69425594
In      -1.78567735       3.50698492      -0.07227627
In       2.99818965       2.42886717       4.50913169
Ga       0.12572833       1.97248554       5.81810291
In       0.69976474       4.08185419       3.14851093
In       5.77128386       2.09523869       0.25782372
In      -2.07798636       5.70824127       1.94544261
In       3.32359829       3.83221212       1.40731297
In       3.05487176       1.04178604      -0.90150665
In      -1.50015707       4.72763497       5.19612478
In       3.56994108       5.64301818      -3.62983208
In       3.38812855       0.14118891       2.33289462
Cu       0.78871380       1.12595808       3.44915313
Cu       0.96016646       6.11678648      -2.94740766
Cu      -3.50341570       6.43946062       4.21017737
In       1.55823719       4.06183856      -1.21137744
In       5.48110723       0.19297532       5.19316612
In       0.68709359       1.83012105       0.84828363
Cu       5.21667712       2.10989448       3.01902403
9
Lattice="5.559513568878174 0.0 -3.067965269088745 -1.8881867813137216 5.884367029317971 -3.4121859073638916 0.0 0.0 7.275160789489746" Properties=species:S:1:pos:R:3 pbc="T T T"
Cd       0.61230746       2.16846848      -0.45524078
Cl       3.81419862       1.88895167      -2.71565665
Cu       1.97392767       0.72704602       3.59549221
Cl       1.51225190       4.65682923      -0.37945314
Cl       2.47255117       1.66778902       1.35733296
Cl      -0.46287275       5.69280085       2.42336524
Cl       0.50793017       2.65313914       4.17668611
Hg       1.46089288       5.14943634      -3.08675104
Cl      -1.74599412       5.44696325      -0.80982699
6
Lattice="3.2232837677001953 0.0 0.5541662573814392 1.5622133016695443 2.818269450554391 0.5540230870246887 0.0 0.0 9.671972274780273" Properties=species:S:1:pos:R:3 pbc="T T T"
Hf       1.61271413       1.21597959       1.54382856
B        2.91923035       1.98460830       3.59654704
Hf       1.05322129       0.88474657       4.81021229
Hf       3.63900221       2.40880757       9.08503065
B        2.94504662       0.09993567       3.44324723
S        2.34989618       1.64977021       6.92002236
3
Lattice="3.485852003097534 0.0 0.026515929028391838 -1.67609355992088 3.0576900770762907 0.039851587265729904 0.0 0.0 4.292187213897705" Properties=species:S:1:pos:R:3 pbc="T T T"
Hg       1.91056343       1.35607347       1.76356761
O        0.19256043       2.37187399       0.70992806
O        0.14370306       0.34074113       2.78745227
4
Lattice="5.167893409729004 0.0 -0.005247218534350395 -0.01596730700229187 5.169695037502879 -0.011429747566580772 0.0 0.0 5.16696834564209" Properties=species:S:1:pos:R:3 pbc="T T T"
Ce       1.16408402       1.72917894       4.00356790
Y        1.15805112       4.32036054       1.41176724
Y        3.75218143       1.73541242       1.41139901
Y        3.74367609       4.31852805       3.99014341
10
Lattice="3.831378936767578 0.0 0.007752022240310907 0.00804883812911081 8.727315052180098 0.01861720159649849 0.0 0.0 8.730169296264648" Properties=species:S:1:pos:R:3 pbc="T T T"
Na       0.45453061       6.54782558       5.54955708
Na       0.45215681       3.56789811       8.52016916
Pb       2.36803250       5.05731330       2.67963229
Na       0.45117246       7.92439784       1.19015592
Tl       2.36375883       1.80931006       1.55070282
Na       0.44793142       2.18536735       4.16513698
Tl       2.36851317       3.93951610       5.91402755
Tl       2.36831683       6.18126538       8.15801864
Tl       2.36935966       8.30024028       3.80032552
Pb       2.36313107       0.69257574       7.03356922
16
Lattice="7.104618072509766 0.0 0.010497474111616611 0.018123949463433334 7.10485054083531 0.006299431435763836 0.0 0.0 9.972639083862305" Properties=species:S:1:pos:R:3 pbc="T T T"
Ho       5.34516001       1.85310026       1.60732491
Sm       5.35604261       5.41686701       6.61439132
Ho       1.79444971       5.41290153       6.61073980
Ho       0.02543283       3.62530061       9.08859612
Ho       3.55219063       0.09244750       9.09375346
Ho       0.01766119       0.09120332       4.10184092
Sm       3.55889366       3.62370027       4.10983924
Ho       0.01934278       0.09330267       9.08613636
Sm       5.35676044       5.41522941       1.60824080
Ho       0.02657926       3.62550727       4.10410212
Ho       1.78345202       1.85199476       1.60444982
Ho       1.78200279       1.85053522       6.60624719
Ho       3.56050585       3.62521380       9.09458551
Ho       3.55196895       0.09012351       4.10613155
Ho       5.34511520       1.85894113       6.60832849
Ho       1.79326460       5.41272239       1.60697478
20
Lattice="9.726997375488281 0.0 -0.09436164796352386 0.01465133669114568 8.408150305593878 -1.0977951288223267 0.0 0.0 8.28376293182373" Properties=species:S:1:pos:R:3 pbc="T T T"
K        0.71221677       0.99177058       5.01385482
H        8.07891869       6.18813051       1.95105362
K        3.54477956       5.35098481       0.19263979
Br       9.24207270       6.11989091       3.02467991
H        3.97383112       6.95575163       3.86912006
H        0.36025514       0.07596049       0.64020018
K        6.14201795       1.03842082       2.35573256
H        0.31388980       2.71491177       0.35492132
Br       0.87813501       3.50734531       7.37563855
H        5.93282315       1.96167196       6.64571612
H        3.92947127       4.31866599       4.06714057
K        7.84463462       5.20681623       5.95969316
Br       3.38970648       3.29625694       3.02972934
Br       6.67946338       6.26778314       0.49474491
Br       0.90197132       7.45005098       6.77481863
Br       9.42255029       1.52048317       1.77076670
Br       3.42497117       7.78130839       2.61915271
Br       4.59338610       5.77415836       5.34089238
Br       7.32138749       2.03079800       5.19641664
Br       4.75305390       1.94818925       7.70160377
15
Lattice="7.804845809936523 0.0 -0.007340348791331053 -3.912555598435632 6.750699092375604 -0.014112413860857487 0.0 0.0 9.63890552520752" Properties=species:S:1:pos:R:3 pbc="T T T"
Rb       1.53145033       1.24133928       4.11901030
Rb       1.52625761       5.74225654       7.37147268
Cd       5.43028361       3.49415944       5.72363242
Br       1.52744234       3.49781499       0.87672181
Ag       1.52861794       1.24361359       8.93603266
Br       3.48801010       0.11600912       0.88298982
Br      -0.42825283       2.37206964       7.35271624
Br       3.48642136       2.37017526       7.35213392
Cd       1.52378410       5.74211128       2.49292685
Rb       5.43237093       3.48845982       0.84371140
Br       3.47662554       4.61680592       4.10868209
Br       7.38125913       0.11502431       0.87974036
Br      -0.42405098       4.61819571       4.11122923
Br       5.43384888       1.23970695       4.11725273
Br      -2.37871196       5.73591152       7.34863449
12
Lattice="6.772710800170898 0.0 0.13746526837348938 0.03164346086663297 6.482955000771817 0.036486539989709854 0.0 0.0 5.8892974853515625" Properties=species:S:1:pos:R:3 pbc="T T T"
S        5.16569137       5.99093685       0.88621851
W        3.91440035       2.91243748       3.10454144
Mo       3.85797494       4.31372173       5.47555668
Se       5.39351446       2.79187063       0.92400967
S        2.67167866       1.16017627       1.83603789
S        2.50266819       4.36981826       1.74909810
S        2.25385796       6.02690197       4.75349362
S        2.17236890       2.77510779       4.73520912
Se       5.65492267       1.11956703       3.78333763
S        5.65093439       4.38718487       3.86950310
W        3.92580463       5.85247034       3.07762321
W        3.84022688       1.24163586       5.48046158
16
Lattice="6.689540863037109 0.0 3.8408613204956055 2.2466977692862704 6.300882437082762 3.846536159515381 0.0 0.0 7.755598068237305" Properties=species:S:1:pos:R:3 pbc="T T T"
Tb       2.42684532       1.18589760       7.86691154
Tb       6.89555572       4.33640135      11.70938251
Tb       5.77202733       1.18648995       9.78682174
S        2.38436116       5.87324217       4.01551102
Tm       5.77174856       1.18566006       5.90894404
Tb       3.55083723       4.33631835       9.78919531
Sc       6.89563648       4.33628230       7.83204588
S        4.63695447       2.74422074       4.01440624
Tm       3.55067664       4.33660152       5.91063010
S        1.32607945       2.79912300       5.86094456
S        2.46508773       5.92998205       7.80914412
S        4.71550026       2.79951753       7.80561988
Tm       2.42680574       1.18591910       3.98933033
S        1.27720598       2.76592427       2.12025968
S        5.77496289       5.87310884       5.96276520
S        5.82369812       5.90752796       9.70418932
6
Lattice="2.9939584732055664 0.0 -0.00027280833455733955 -0.00023122815491232983 4.163671487109682 -0.002679470693692565 0.0 0.0 5.92329216003418" Properties=species:S:1:pos:R:3 pbc="T T T"
Ti       1.40352418       1.41603709       0.82494476
Ti       2.90406350       3.48847125       2.30232998
Ti       2.90362600       3.49030898       5.26248396
N        1.40911622       3.49330866       3.78364659
N        1.40777858       3.49568542       0.82180757
Ti       1.40708512       1.41154352       3.77848602
7
Lattice="3.9954581260681152 0.0 0.005216695833951235 -1.9907402488116197 5.806729114539428 -2.3954341411590576 0.0 0.0 9.150014877319336" Properties=species:S:1:pos:R:3 pbc="T T T"
Pr       0.80531834       1.27201691       0.86566239
Pr       0.80593384       2.67346559       4.11188467
Ru      -1.18986660       4.83204426       5.34747833
La      -1.19192186       4.68426998       1.48899835
La       2.80321935       0.66718639       6.73415498
Pr       0.80424265       4.07384445       7.35989939
Ru       2.80025507       0.51060841       2.87566584
6
Lattice="3.015446662902832 0.0 -0.0022507694084197283 0.0001936668005335885 3.014358275867871 -0.0012908794451504946 0.0 0.0 12.390790939331055" Properties=species:S:1:pos:R:3 pbc="T T T"
Ag       2.00922058       0.51588316       2.48170605
Ag       0.50136902       2.02186148       0.48020297
Ag       0.49912356       2.02124395       8.46614148
Ag       0.50023244       2.02137745       4.47345072
Ag       2.00600220       0.51502591       6.46684168
Hg       2.00758376       0.51350487      10.66522385
12
Lattice="4.489590167999268 0.0 -0.8039770126342773 -1.614763146288681 4.267622956654168 -0.8573684096336365 0.0 0.0 8.549895286560059" Properties=species:S:1:pos:R:3 pbc="T T T"
Cu       1.06996409       2.59320524       0.75287246
Cu       2.59166969       1.52679413       5.04023183
Cu       2.02764035       4.01688496       5.91724992
Cu       1.54914951       3.31375397       3.34681196
Pt       2.12224221       0.83018595       2.50842917
Cu       0.11406167       1.18107736       4.18478819
Pt      -0.93702349       2.94837669       2.42522805
Cu       4.12366180       0.46190122       0.78711242
Pt      -0.46153994       3.65687768       5.00962244
Pt       0.58723289       1.88239533       6.74254039
Pt       1.64429467       0.11286020      -0.06593321
Cu       3.07632480       2.24153978      -0.89986265
14
Lattice="7.065408706665039 0.0 2.586472272872925 1.6496670522338936 6.8610500901917275 2.586660385131836 0.0 0.0 10.285975456237793" Properties=species:S:1:pos:R:3 pbc="T T T"
Tl       6.72261866       3.88083593      13.68910588
Cl       0.89262928       2.07948279       3.07693227
Cl       2.36220039       5.42271287       5.99339004
Sb       2.56121416       0.19584927       8.54265301
Cl       4.59700451       1.60272876       8.51967578
Sb       2.56092462       0.20411194       3.40087188
Cl       4.40878779       1.84481087       3.38857506
Tl       7.11461444       3.38151540       8.55280692
Cl       1.12989239       2.26197121       8.85678961
Cl       2.17506842       5.65576555      11.13474446
Cl       2.26212205       0.57907747       5.97061793
Cl       5.87272172       5.18494130       6.30535839
Cl       4.51032460       6.69027565      13.68921964
Cl       5.64038086       5.00120722      10.80144182
5
Lattice="3.563279390335083 0.0 -0.005682388786226511 -0.009341431600036528 3.563124094007256 -0.003976750653237104 0.0 0.0 3.8110768795013428" Properties=species:S:1:pos:R:3 pbc="T T T"
Co       2.77847528       0.14228431       0.18183748
Co       0.99420273       1.92335927       0.18177254
H        2.77552384       1.92384795       0.17907278
W        2.77710065       1.92277990       2.08422913
Co       0.99843384       0.14154211       2.09021932
11
Lattice="3.4397072792053223 0.0 0.2869401276111603 -0.10308634214861027 5.090299681937638 0.7206645607948303 0.0 0.0 16.928516387939453" Properties=species:S:1:pos:R:3 pbc="T T T"
Mg       2.51728848       2.47200484      16.58082160
Na       0.52744042       2.01559058       2.48712534
Tl       2.30439027       4.74871454       1.79825121
Na       2.90154860       0.50167304      12.55036086
Mg       3.07518687       3.34355809      11.01466385
Pb       1.61000275       3.77313872       8.18363811
Tl       0.23420096       4.25993646       4.81293859
Tl       1.05551384       2.89074965      13.72845952
Mg       1.49205434       0.96306748       9.50630535
Mg       0.92433800       0.05912963      15.23895835
Na       0.04382491       1.41662245       6.40640170
4
Lattice="3.8536319732666016 0.0 0.008105757646262646 0.015002750670939789 4.564521452657949 0.008021466434001923 0.0 0.0 7.142853260040283" Properties=species:S:1:pos:R:3 pbc="T T T"
La       0.04002056       1.38155637       2.07579467
La       0.03861171       1.38106882       5.50386732
Mg       1.97315238       3.66417881       0.22817120
Pb       1.97370355       3.66400686       3.79986364
4
Lattice="4.380250453948975 0.0 2.538224935531616 1.4638964259202965 4.132033690005922 2.5347867012023926 0.0 0.0 5.061066150665283" Properties=species:S:1:pos:R:3 pbc="T T T"
Dy       4.11869129       3.54304311       4.35659842
Li       2.65728355       2.51011128       6.88253076
Au       4.11555990       0.44405940       4.35408012
Tm       1.19527168       1.47668774       4.34915555
4
Lattice="3.5526282787323 0.0 0.011475634761154652 0.009146708473135513 3.551676654856518 0.0034661744721233845 0.0 0.0 8.674365997314453" Properties=species:S:1:pos:R:3 pbc="T T T"
Dy       2.33511795       1.97656740       3.94616001
Sm       0.55459523       0.20084419       6.59233542
Dy       2.33732400       1.97689658       0.58020817
Pd       0.55561545       0.20090208       2.25812225
16
Lattice="4.47417688369751 0.0 -0.004136963747441769 -2.2470585334421287 7.273844590317966 -0.023996751755475998 0.0 0.0 15.14642333984375" Properties=species:S:1:pos:R:3 pbc="T T T"
Li      -0.56693036       6.41458035       4.65415657
Dy       1.67021540       5.96670815       1.72221424
Ba      -0.56372445       5.95639041      12.23936915
Sc       1.67626019       2.31810090      15.10961435
Sc       1.67677247       2.29982135       9.39265576
Te       3.91721909       0.36779456      14.36621036
Ba      -0.56037618       2.34760453       4.67220015
Te       3.91816861       0.35551420      10.13275494
Te       1.67389158       4.98097724       4.66373824
Li      -0.55613234       1.97570653      12.24744206
Te       1.67703787       0.78083610       2.51694842
Dy       1.67100936       5.96239254       7.58417076
Te      -0.56312121       4.09043202       8.49014854
Te      -0.56228433       4.09488419       0.84846729
Te       1.67793407       0.78351347       6.83989744
Te       1.67673478       3.33534908      12.24163750
8
Lattice="3.2553207874298096 0.0 -0.0004654315998777747 -0.0019234672152527465 6.552608684517993 0.1394207626581192 0.0 0.0 6.577821254730225" Properties=species:S:1:pos:R:3 pbc="T T T"
Mo       0.91441670       0.24556646       6.47581131
Ta       2.54176434       5.17227063       4.94355933
Ta       0.91526961       3.46717820       6.59531098
Ta       0.91446035       0.30608507       3.12626049
Ta       0.91488509       3.50929527       3.24292199
Ta       2.54307443       1.82631160       4.91048338
Ta       2.54224720       5.21353939       1.58986276
Mo       2.54353072       1.87416295       1.56122649
3
Lattice="4.461023330688477 0.0 0.0029087262228131294 -0.0004886682401694394 3.835332600933667 -2.209385871887207 0.0 0.0 4.427337169647217" Properties=species:S:1:pos:R:3 pbc="T T T"
Ca       2.78317105       2.46232933       2.39231658
In       0.69587739       3.74117351       0.17879259
Si       0.16534334       1.18341988       0.17552549
10
Lattice="3.5641398429870605 0.0 -0.003479487495496869 1.3158054920319125e-05 4.9315643310371335 -2.444951057434082 0.0 0.0 7.651566982269287" Properties=species:S:1:pos:R:3 pbc="T T T"
H        2.94889243       4.27260653      -1.03844232
Gd       2.94820328       1.24792162       2.66024548
N        1.16781743       3.02388597       2.81310690
C        1.16639253       3.95331412       2.00453750
N        2.94705315       0.37898174       6.60699963
Gd       1.16580206       3.99216677       5.17905271
H        1.16517514       0.96580197       1.22866778
C        2.94518040       1.29762376       5.83691933
N        2.94554401       2.22075342       5.02331493
N        1.16663800       4.86584018       1.22463548
12
Lattice="8.282981872558594 0.0 -1.7068089246749878 0.01098232163834778 7.147837785014583 0.024904664605855942 0.0 0.0 8.275545120239258" Properties=species:S:1:pos:R:3 pbc="T T T"
Sr       5.12241894       5.25657757       6.53955935
Sr       4.67119565       1.67289630       3.93875903
Ca       7.14006488       3.44932968       1.44262902
Sr       7.74079161       1.68158814       6.20711630
Sr       1.05246874       5.24832893       0.38827295
Sr       3.61664079       1.67933159       0.03397271
Ca       4.11030035       5.26762022       2.67089713
Ca       7.15181650       7.06424618       1.44267489
Ca       1.57599603       7.01492303       5.12770464
Ga       7.20056045       5.25809557       4.07165163
Ca       1.58121001       3.49187426       5.10600310
Ga       1.51300176       1.67907000       2.48681630
11
Lattice="6.845306873321533 0.0 -3.8214964866638184 -1.8659649418099211 6.907165439949611 -3.3421754837036133 0.0 0.0 8.058929443359375" Properties=species:S:1:pos:R:3 pbc="T T T"
Ag       5.02063251       5.91986314      -4.47390850
Cl       0.51646283       3.05778628      -0.49077004
Cs       2.74471175       5.79315614      -0.48835111
Cs       0.31305034       3.11649705       3.18046672
Cl      -0.87137369       5.85664591      -2.97721633
Cl       3.92660820       3.05734885      -2.39133599
Cl      -0.73248600       6.86567934       1.31815767
Cl       2.53601689       5.85975506      -4.87643653
Tl       2.45894947       1.00263007      -1.01524833
Ag       4.87894776       2.99625414       3.33963674
Cl       3.78270067       2.04667809       1.37076531
11
Lattice="4.930332183837891 0.0 -1.4065136909484863 -0.4909275701860453 6.4493865554705145 -1.6657217741012573 0.0 0.0 9.474823951721191" Properties=species:S:1:pos:R:3 pbc="T T T"
Dy      -0.01496099       4.84684476       2.15418910
Dy       1.02011858       5.45301933       5.84376462
Li       1.21070983       1.74152242       6.47372364
Dy       4.23059254       1.43457639       7.73926637
Dy       3.35744799       3.25574811       4.66122474
Dy       1.90790905       3.50973812      -0.50406122
Dy       0.37672982       2.01113882       3.50897663
Dy       2.85323086       6.30828723       2.90251517
Ni       2.63169159       3.40891955       2.07497194
Pb       4.06492041       4.99705622      -2.28339564
Dy       2.40525294       0.52381644       1.24105401
12
Lattice="7.2611894607543945 0.0 0.07867033034563065 -0.19419985419221186 7.309109452383764 -5.15821647644043 0.0 0.0 9.888314247131348" Properties=species:S:1:pos:R:3 pbc="T T T"
Ba       4.36096990       3.48442375       0.22706276
K        4.36250861       3.48813380       5.16780098
Br       6.35899793       0.80361942      -0.08616402
Br       6.39841507       4.70019875       2.59194091
Br       2.32767465       2.27508296       7.74199291
K        0.63312815       7.14377767      -2.39825312
Br       2.88499184       2.23800682       2.66301530
Br       2.36907029       6.18208124       0.52355376
Br       6.49740498       0.82787369       5.75020248
Br       2.23102233       6.14162397       4.58151575
Ce       0.63645231       7.14247941       2.54792796
Br       5.83615102       4.74343856      -2.21196322
6
Lattice="3.748021364212036 0.0 -0.00038664494059048593 -0.0015438598344835028 3.748092571823624 -0.0040911342948675156 0.0 0.0 11.350021362304688" Properties=species:S:1:pos:R:3 pbc="T T T"
Nd       0.59643078       0.27655848       7.67123016
Er       0.59569277       0.27658582       3.83177788
Cd       2.46905859       2.15006561       1.99257832
Er       0.59538263       0.27593019       0.15721985
Cd       2.46937545       2.15041591       5.61237815
Cd       2.46957768       2.15027628       9.72386839
8
Lattice="3.8836278915405273 0.0 0.002785951131954789 -1.9289876003868756 6.069974350867506 0.001335255103185773 0.0 0.0 9.89971923828125" Properties=species:S:1:pos:R:3 pbc="T T T"
Nd       1.50891350       5.04474873       6.42451354
Ho      -0.42852384       5.75618962       3.34329596
Nd      -0.43547484       2.26197520       5.21078219
Nd      -0.43661791       2.26146272       1.47005661
Ho       1.50289486       1.54523975       8.29383053
Pd      -0.43324054       3.81393681       8.29138025
Pd       1.50856890       3.49578372       3.33831931
Nd       1.51001139       5.05207298       0.25804278
6
Lattice="4.181169509887695 0.0 -0.0031064257491379976 -0.004592244334211053 4.18990455736577 -0.003869623877108097 0.0 0.0 8.6895751953125" Properties=species:S:1:pos:R:3 pbc="T T T"
Zn       1.01813149       0.81609522       4.09284265
Zn       3.10654417       2.90968255       4.09182015
Tl       1.01826052       2.91199737       7.35721859
Tl       3.10573752       0.81588843       0.82339708
Hg       3.10980577       0.81609053       6.02254943
Hg       1.01408548       2.91066302       2.16574198
5
Lattice="3.2966644763946533 0.0 0.42617690563201904 1.6225430149445261 2.866156409014739 0.4260838031768799 0.0 0.0 13.051732063293457" Properties=species:S:1:pos:R:3 pbc="T T T"
Al       1.39242104       1.82088517       1.22314089
Tl       1.72519479       0.09320447      11.62109010
Cd       2.46854442       2.44587997       5.84575406
Tl       3.77553329       1.28641333       8.72736663
Ga       2.78492310       0.71059263       3.38658390
4
Lattice="4.164071083068848 0.0 1.8804329633712769 1.682388855073711 3.8130894523580734 1.8747879266738892 0.0 0.0 5.6123785972595215" Properties=species:S:1:pos:R:3 pbc="T T T"
La       4.11076908       0.64152063       7.14822010
Mg       2.78366392       2.49064924       4.53990572
Zn       1.13020134       1.41218837       2.61542255
Ir       4.63353933       3.69742980       6.00499377
5
Lattice="2.698815107345581 0.0 -0.378537118434906 -0.05714087879652245 2.6971820765892858 -0.3806966245174408 0.0 0.0 9.877739906311035" Properties=species:S:1:pos:R:3 pbc="T T T"
Ir       2.57671898       1.81560619       2.16559325
Ir       1.52509662       0.74362452       4.49767000
Os       0.40689116       2.35846590       6.35978695
Ir       0.99525349       0.20244147       0.67829730
Ir       2.04121912       1.27451120       8.21744248
4
Lattice="3.412482500076294 0.0 0.5875962376594543 1.6573754378282504 2.9846477115149592 0.5892824530601501 0.0 0.0 10.062944412231445" Properties=species:S:1:pos:R:3 pbc="T T T"
Cl       1.14290039       0.92992594       7.18893959
Sc       2.10652106       1.49767274       1.68729109
Sc       4.23844412       2.75437631       9.60994582
Cl       3.54671750       0.33601665       3.51479588
12
Lattice="4.140582084655762 0.0 0.019334109500050545 0.03961378638509338 6.441219588025959 0.04502514377236366 0.0 0.0 9.343125343322754" Properties=species:S:1:pos:R:3 pbc="T T T"
Li       0.10700294       6.09014289       4.23251268
Cd       2.15006920       1.26271176       2.75826110
Li       0.08873414       2.87374727       4.20638424
Mg       0.11077203       6.13165803       1.16896749
Mg       2.17204952       4.47896725       8.90831300
Li       2.14958963       1.26013725       8.85665985
Cd       0.08811250       2.83333746       7.37018022
Mg       2.16994033       4.48309178       5.78403142
Cd       2.17362985       4.48094793       2.76454345
Mg       2.14959983       1.26275735       5.78283560
Cd       0.11327711       6.12261963       7.39131413
Mg       0.08869587       2.83598233       1.15359658
12
Lattice="5.835357189178467 0.0 -1.914556860923767 -0.43196954859006137 6.831821818222798 -1.3057483434677124 0.0 0.0 9.279424667358398" Properties=species:S:1:pos:R:3 pbc="T T T"
Tb       2.64753659       3.70617103      -1.28307363
Tb       4.75830431       2.56457535       1.28030286
Tb       2.88552752       0.32247692      -0.65288402
Tb       5.45732902       5.42754644      -2.57105849
Tb       1.92675769       0.84739388       2.57810615
Nd       0.82013330       1.40481075       5.91677433
Tb       1.72495711       4.28721739       1.91617494
Nd       0.68995812       4.85884053       5.17229454
In       4.45639844       5.96679164       0.57014758
In      -0.07732764       2.02470142       0.05627534
Nd       3.69464710       3.13327841       4.74552988
Nd       3.55556940       6.58470135       3.98547739
16
Lattice="6.405423641204834 0.0 -0.01516818068921566 -3.195101228786826 5.552679260463062 -0.004435807932168245 0.0 0.0 10.216787338256836" Properties=species:S:1:pos:R:3 pbc="T T T"
Mg       1.13493392       2.82470196       4.40827340
Mg       4.33988412       2.82785176       4.40324066
Mg       1.13770652       4.68073251       6.96785076
Mg       1.13668452       2.80261697       9.51881160
Mg       2.71370531       0.06066239       9.52286724
Mg      -0.48426525       1.90639241       1.85414436
Mg       2.75531442       1.91392055       6.98345024
Mg       2.72970555       0.05133967       4.41123653
Mg      -0.48719381       1.90752878       6.98169485
Li       5.93856607       0.05321985       4.40865841
Mg      -2.06466868       4.65644395       1.84984812
Hf       4.34069843       2.82655735       9.51072509
Mg       2.75639809       1.91054504       1.83911985
Mg      -2.06622974       4.65591871       6.97840529
Mg       1.14022352       4.67810597       1.84401718
Mg       5.96092913       0.06126967       9.51417346
6
Lattice="3.376361608505249 0.0 -0.00015269267896655947 0.01116689459639088 5.122927415923652 -1.8416069746017456 0.0 0.0 7.996801853179932" Properties=species:S:1:pos:R:3 pbc="T T T"
Hg       1.47271391       2.04568909       4.04002693
Cd       3.16580197       4.00764655       1.90432006
Cd       1.48035041       3.39887858       6.54487690
P        3.16259087       1.62808519       0.62808624
Hg       3.16141414       0.22039936       6.26787404
P        1.47360749       0.62959844       1.69842007
4
Lattice="3.0584566593170166 0.0 -0.000627239583991468 -0.0011209570879807166 5.249228834626674 -1.7365890741348267 0.0 0.0 5.5247368812561035" Properties=species:S:1:pos:R:3 pbc="T T T"
Cd       1.51922399       2.49867913       3.11265768
Hg       3.04768442       2.49209539       0.35183132
Hg       3.04720851       5.11849853       2.23929730
Zr       1.51770814       5.12006011      -0.52041082
11
Lattice="5.2889933586120605 0.0 -1.3077746629714966 -1.4044282426708323 5.312958805433575 -2.9701504707336426 0.0 0.0 7.493041515350342" Properties=species:S:1:pos:R:3 pbc="T T T"
Zn       2.09648098       1.51172205       3.90984773
Zn       3.54448130       0.44687751       6.00875157
Ga       3.95822437       3.18168381      -0.01791716
Ga       0.19711801       0.95353589       1.86002194
Ga       1.61997175       3.45771724       1.75955116
Ga       1.01974623       1.55325250      -0.92319874
Ga       2.63486418       3.80159872      -2.31003405
Zn       0.38052872       4.08358060      -0.57546630
Ga       2.83558962       0.97470132       1.20986933
Na      -0.51413848       3.62889700       4.13197819
Ga       4.62031360       0.40063056       3.35060780
8
Lattice="4.505841255187988 0.0 -0.9444445371627808 -0.22388383629240174 4.857846440340155 -1.1150853633880615 0.0 0.0 11.087287902832031" Properties=species:S:1:pos:R:3 pbc="T T T"
Tl       3.75927623       0.91561061       9.39329203
Ce       3.11020875       2.73884937       6.33192235
Ce       1.01046541       0.36735800       7.55753081
Pr       2.47030988       4.56840076       3.28970061
La       1.42722490       3.38480433       9.46365547
Tl       4.20491040       3.98140517       0.38823186
Pr       2.05944687       1.54578885       1.39228470
Tl       0.36269278       2.18306816       4.48687010
12
Lattice="3.7600209712982178 0.0 0.0017837889026850462 5.0109356805622785e-05 6.159979820047654 -1.69216787815094 0.0 0.0 10.299654960632324" Properties=species:S:1:pos:R:3 pbc="T T T"
Rb       1.71346363       3.75604275       6.32331891
Rb       3.59466191       2.77620405       2.39045308
O        3.59341385       5.53598487       1.75706937
La       1.71390756       1.35332265       9.36553593
Fe       1.71542657       0.13652533       3.23373785
La       3.59340460       4.67430816      -0.74636890
Rb       3.59589336       0.53696409       6.04060809
O        3.59355860       5.86238653       7.39100418
O        1.71545264       1.64726413       4.30256526
O        3.59557135       2.55383795       8.18157502
O        1.71179830       0.32015442       1.29594086
O        1.71400011       3.44647884       0.07162282
4
Lattice="4.054315567016602 0.0 2.3433282375335693 1.3522599363596297 3.8244000366503648 2.3425843715667725 0.0 0.0 4.683533668518066" Properties=species:S:1:pos:R:3 pbc="T T T"
Sc       4.08295792       1.73000710       4.32502884
Au       2.73100269       0.77362317       1.98216098
In       2.73219364       3.64187773       6.66615617
Cu       1.38079372       2.68624137       4.32412570
10
Lattice="3.945225477218628 0.0 -0.0011481932597234845 -0.011473890042489835 3.9442565446064775 -0.0034203643444925547 0.0 0.0 13.69681167602539" Properties=species:S:1:pos:R:3 pbc="T T T"
S        3.33120050       0.95651557      12.01298149
Ho       1.35426374       2.92855903      11.92290307
S        3.33289131       0.95091887       6.61951137
Ce       3.33020560       0.95844047       1.75401125
Ce       1.35434077       2.92471450       5.73366694
S        1.35254048       2.93165218       0.87924175
Ho       3.33257247       0.95357528       9.26205644
S        1.35380933       2.92725824       9.18481410
S        3.32322885       2.93099838       3.74970268
S        1.35913582       0.95783586       3.74697725
16
Lattice="7.917408466339111 0.0 -4.508017063140869 -2.8226875612662634 7.572686126805167 -4.231814384460449 0.0 0.0 9.149421691894531" Properties=species:S:1:pos:R:3 pbc="T T T"
K        5.67365322       1.72051396       3.96281569
Li       1.71585556       1.71712656       6.21842583
Cs       0.29806106       5.50657368       4.10658269
Cl       1.49749217       7.48961695       1.77399567
Cl      -2.21254009       7.45581179      -0.42773776
Cs       4.26040473       5.50626088       1.84400208
Cs       5.66835347       1.71686815      -0.60843244
K        1.71395281       1.71627641       1.64107557
Cs       4.26023639       5.50996751      -2.72929304
Cl       2.81376127       3.55597672      -0.52408361
Li       0.29703918       5.50103269      -0.47277657
Cl      -0.67061044       3.88718257       1.19465199
Cl      -0.89230814       3.52337469       6.43374619
Cl       0.66185690       0.31811677       8.03066498
Cl       1.27011007       7.12287337      -2.13962184
Cl       2.76247698       3.12154092       4.40138703
16
Lattice="7.746100902557373 0.0 3.822633743286133 2.9386736330325216 7.16652454898612 3.8240249156951904 0.0 0.0 9.783801078796387" Properties=species:S:1:pos:R:3 pbc="T T T"
Cs       3.90924224       1.15420150       3.99545317
Cs       5.37814967       4.73610531       5.90963383
Cs       7.78024239       1.15165885       5.90457268
Sm       5.37842473       4.73582467      10.80087356
Tb       7.78191151       1.15194162      10.79915595
Cs       9.25211000       4.73595410       7.81552036
Se       7.84725180       6.39211160      10.72995120
Tb       3.90898214       1.15272386       8.88823316
Se       8.27826000       6.68098413      14.69253928
Se       6.82454881       3.08066073      12.79758903
Se       2.47992999       2.78980042       6.90658755
Tb       9.25025646       4.73526552      12.70974005
Se       2.90982520       3.08003324      10.86640986
Se       6.36229015       2.76786158       8.79990512
Se       3.93087439       6.39014710       8.79899922
Se       4.39487081       6.70344453      12.80004071
9
Lattice="3.6652588844299316 0.0 0.008323862217366695 0.00476430021100589 3.680338875241893 0.0023926780559122562 0.0 0.0 12.111080169677734" Properties=species:S:1:pos:R:3 pbc="T T T"
Tl       3.31269428       3.46707567      11.43599994
Cu       1.48413802       3.46613986       2.90355138
Tl       3.31727358       3.46676241       5.53637880
Cu       3.30982661       1.62549341       2.92579359
As       1.47945171       1.62766260       1.55914783
As       1.48601419       1.62814148       8.24942471
O        1.48690203       3.47041901       7.68900189
O        3.31936218       1.62966541       7.68319050
O        1.48154573       1.62834790       9.91226112
11
Lattice="4.441267967224121 0.0 0.966666042804718 2.112210960635763 3.9080912724436367 0.9753707051277161 0.0 0.0 10.731809616088867" Properties=species:S:1:pos:R:3 pbc="T T T"
Mg       5.33196545       2.08794932       2.82600845
Li       4.12995345       1.37061463       8.39069834
Li       2.70388555       3.16823718       4.21243136
Li       4.72334876       1.72283925       5.64024102
Au       1.53111578       2.46694357       9.64294613
Au       2.30304764       0.28051972       6.08844330
Au       2.89851899       0.63493978       3.33383550
Mg       2.09088461       2.80220979       7.06025180
Al       3.85596824       3.85678755       9.64164683
Au       3.27408633       3.50976367       1.57907364
Mg       3.52258485       1.00766147      11.19313552
5
Lattice="3.9871666431427 0.0 0.0026130657643079758 0.0058009702220421415 4.062968881248027 0.001975946594029665 0.0 0.0 4.0651984214782715" Properties=species:S:1:pos:R:3 pbc="T T T"
Rh       2.83148425       1.08624824       1.14151951
Cd       0.84093826       3.11745334       1.14103929
Pt       0.83786527       1.08503714       3.17319623
Rh       2.83547903       3.11766403       3.17531152
H        2.83139885       1.08569028       3.17315705
12
Lattice="4.270590305328369 0.0 0.002316700527444482 -0.0005268703833800839 7.3380951692263965 -0.003338439855724573 0.0 0.0 7.467867374420166" Properties=species:S:1:pos:R:3 pbc="T T T"
La       4.24965461       5.70383752       3.88340213
Zn       2.11518780       3.41298933       3.87791197
La       4.25217649       0.45222865       0.14647320
Al       4.25065685       1.42353288       3.88182357
Zn       4.25247117       3.07691287       2.01137210
Zn       2.11614399       0.75250739       5.29104342
Zn       2.11676321       2.74796995       0.14600220
Al       4.25110105       4.72394828       0.14680143
Zn       2.11640789       5.41010273       1.56127619
Zn       2.11548917       5.40384332       6.20651801
Zn       4.25252797       3.07642191       5.74321264
Zn       2.11565756       0.75059230       2.46685442
10
Lattice="4.149473667144775 0.0 0.002271278528496623 0.005029008148148705 7.070190071638873 -1.859511137008667 0.0 0.0 10.721969604492188" Properties=species:S:1:pos:R:3 pbc="T T T"
Te       1.70539854       0.79720561       9.82253240
Al       3.78457882       6.82232994      -1.49861321
Te       1.70690549       2.45559580       5.66999257
Sc       1.70849460       5.06818640       6.93597192
Te       3.78123991       0.49222399       2.91785311
Sc       1.70927940       6.67484271       2.91372598
Te       1.70856519       4.05387056       1.85394176
Te       3.78409032       6.02880835       4.93487687
Te       3.78202698       4.24937142       8.80361907
Sc       3.78212124       3.32170696       3.72633400
6
Lattice="3.5295188426971436 0.0 -0.0009708279394544661 -1.7225469217339657 6.734493237641702 -1.082757592201233 0.0 0.0 7.645761013031006" Properties=species:S:1:pos:R:3 pbc="T T T"
Cl       0.31509674       1.29199411       5.31760142
Zn       2.08350130       2.18445792       6.63180085
Zn       2.10712314       3.45462331       1.05509787
Hg       0.34858272       5.03152211       6.09861397
Cl       0.34292392       4.35336492       2.37755507
Hg       0.32303702       0.61713006       1.60870848
7
Lattice="3.8553454875946045 0.0 -0.6241632699966431 -0.10001389982330043 3.852608905873319 -0.6168732047080994 0.0 0.0 12.30172061920166" Properties=species:S:1:pos:R:3 pbc="T T T"
Y        3.63036409       1.35989740       3.05481797
Hg       2.96797498       2.65527173      11.24318602
Hg       0.78115678       0.42053270      10.02538535
Hg       2.42677470       2.10194207       7.91589757
Hg       1.32359162       0.97433698       1.03571871
Y        1.99902600       3.64511608       5.25587115
O        3.75519570       3.46236557       3.83712545
10
Lattice="6.821176052093506 0.0 -3.5832462310791016 -4.563087975030783 6.299724278689342 -0.23861509561538696 0.0 0.0 7.728805065155029" Properties=species:S:1:pos:R:3 pbc="T T T"
Cl      -0.79711759       4.72106457       2.38413372
Ho      -1.57470047       2.55162396       3.69869092
Ho       1.83838475       2.56097261      -1.95641648
Cl       4.28629943       1.55309860      -2.14012007
Cl       4.46735609       0.39391845       1.43907186
Cl       2.79995734       3.55373246       0.30221651
Cl       2.61938651       4.72007552      -3.27489887
Cl       0.87391692       1.55697707       3.51360873
Cl      -0.61204103       3.55520890       5.96614470
Cl       1.05870880       0.38670443      -0.64088656
8
Lattice="4.935923099517822 0.0 -1.1466789245605469 -0.26523169486455234 4.963352036021744 -1.1631587743759155 0.0 0.0 11.168394088745117" Properties=species:S:1:pos:R:3 pbc="T T T"
La       2.37921842       1.94100392       5.82390810
In       1.68339467       3.82482308       2.84433698
La       3.12313855       0.10448705       9.01985201
Nd      -0.21991650       4.41882753       5.83063594
La       3.58859365       3.22604854      -0.14330306
La       4.28095087       1.33859721       2.84295867
Nd       1.25630065       0.74353759       1.01002291
Nd       0.50729874       2.57483123       8.97785364
16
Lattice="4.592876434326172 0.0 0.0013992439489811659 0.0072414811186018516 7.711838660184138 0.038508590310811996 0.0 0.0 13.044841766357422" Properties=species:S:1:pos:R:3 pbc="T T T"
Sr       3.85062652       4.51995815       3.11751529
Sn       3.84704283       1.77373453       8.87080888
Sr       3.84572670       0.66802224       5.48077078
Ti       3.84670643       0.48780934       1.76290586
Ti       3.85161010       4.36016421       6.85917609
Ti       1.55144497       3.37142610       8.29677291
Sn       1.55770021       7.01161024       3.19725010
Sr       1.55571381       7.03840253       9.63759713
Sn       3.84540350       0.69437635      11.92700011
Sn       1.55155704       2.08687105       2.35552650
Sn       3.85060121       5.62708251      12.78895069
Sr       1.55236704       3.18942454      12.04238230
Sn       1.55647670       5.94316408       6.24628511
Sn       1.55391784       3.15090331       5.44343135
Sn       3.84894475       4.54727490       9.71083613
Ti       1.55431268       7.21721725       0.33542985
10
Lattice="5.332769870758057 0.0 3.0902352333068848 1.7789760752230555 5.025688906427791 3.0894782543182373 0.0 0.0 6.16194486618042" Properties=species:S:1:pos:R:3 pbc="T T T"
Ba       2.29960994       0.99685407       6.02880967
O        5.67792098       3.38505760       9.11944447
Ba       5.85276808       3.50935411       6.03719751
O        3.27666407       3.38556116       4.34032500
Sr       2.29937802       4.76530214       6.03147800
Ir       4.07706630       2.25412666       9.11520814
O        4.87771070       1.12179319       4.33972227
O        4.87536927       1.12068304       7.72746913
O        3.27663686       3.38523913       7.72847404
O        2.47659758       1.12320716       2.94920921
12
Lattice="3.233844518661499 0.0 -5.7581499277148396e-05 -0.00020980390622834096 6.565402027592579 0.4356034994125366 0.0 0.0 8.362876892089844" Properties=species:S:1:pos:R:3 pbc="T T T"
Na       2.02064597       1.87339752       2.52885656
N        0.40469025       1.14252002       4.14992945
Na       0.40308561       0.48969786       8.24046095
Ta       2.02057168       3.48015674       8.17848968
Ba       2.02126290       6.08548464       5.70464130
N        2.02263651       5.30583587       0.39568058
Ta       0.40505525       2.73100616       5.14592089
H        0.40518583       4.16848237       6.84998489
N        0.40498161       2.75560624       0.73807831
Na       0.40317839       4.68774275       2.35771791
N        2.02172676       2.19812168       6.51618119
N        2.02036119       3.75772680       4.25831710
8
Lattice="5.568601131439209 0.0 0.00134666555095464 0.0005700384209412697 5.571851701187271 0.006652552168816328 0.0 0.0 5.571745872497559" Properties=species:S:1:pos:R:3 pbc="T T T"
S        5.06045693       2.77676332       3.41412499
S        2.27534121       2.77698716       0.62726238
S        2.27419435       5.56288910       3.41549206
Tb       2.27494264       5.56276588       0.63004524
Tb       5.05884925       2.77787654       0.62662399
Tb       2.27340471       2.77754012       3.41257185
S        5.05874145       5.56216244       0.63084493
Sm       5.05946307       5.56248326       3.41764399
12
Lattice="3.5740649700164795 0.0 0.026699500158429146 0.05341947128052152 7.818680905428372 -2.1017847061157227 0.0 0.0 8.82111644744873" Properties=species:S:1:pos:R:3 pbc="T T T"
Y        3.41299828       0.12895840       4.28136928
Y        1.64814255       3.05304117       4.24028586
Y        3.42653971       2.11919735       7.16683958
Y        1.67708135       7.13998555       5.33361264
Y        1.63486603       1.40087327       1.42317573
N        1.62815892       1.17532468       5.87266781
Y        3.45490330       6.17668911      -0.55418668
Se       3.44224554       4.80621694       5.63099208
N        3.41679073       0.24770335       8.70218862
N        1.67430794       7.18294183       0.57224362
Se       3.43966407       3.69484306       0.63824652
N        3.42886774       2.03931823       3.18375125
6
Lattice="3.9385292530059814 0.0 -1.1866005659103394 -0.6964406479319516 5.2251666676529025 -2.3183579444885254 0.0 0.0 7.140020847320557" Properties=species:S:1:pos:R:3 pbc="T T T"
Hg       2.10277696       2.92874187       3.99131788
Se       2.44393709       0.30152013       5.12855010
Se       0.69009423       3.82072025      -0.70764399
Cd       3.18428837       4.67116349       0.45430333
Hg       1.02982651       1.19133255       0.41869282
Se       3.53610459       2.05784624       1.61450103
16
Lattice="6.530110836029053 0.0 -0.08637511730194092 -0.5911325042593604 7.763204898967457 -0.29522058367729187 0.0 0.0 8.001204490661621" Properties=species:S:1:pos:R:3 pbc="T T T"
Cu       5.02660635       2.00679086       5.96663232
Ge       4.38262087       7.40551950      -0.26006261
Ge       1.21361784       5.97393345       1.61554817
Ge       1.65584450       4.03792280       4.64608492
Se       3.65050284       5.66881154       1.24870659
Se       0.27033287       6.72866115       7.49392359
Cu       4.93222199       3.52238081       2.16697497
Ag       1.91567886       2.35693919       0.15217784
Cu       1.32852727       6.44563057       5.24531551
Se       0.53056170       7.53676489       3.25744626
Se       3.57958693       7.42524816       5.53718605
Ag       5.29764291       5.88855318       4.25368430
Se       4.05531728       3.52999191       4.36272064
Se       0.78049697       3.65494403       2.18983983
Se       0.88220335       2.05776883       5.78884811
Se       4.46063464       1.94723215       0.43178408
12
Lattice="7.619927883148193 0.0 -1.2525650262832642 -4.121033164330129 6.409576307460296 -1.2489924430847168 0.0 0.0 7.985065460205078" Properties=species:S:1:pos:R:3 pbc="T T T"
Ho       4.52408910       0.73775257       2.22274931
Ho       4.32114414       5.00808091       0.97249754
Na       2.36269057       6.07739781       4.96752242
Na       2.53647729       1.82117378       6.21750214
Na      -1.31286739       3.92363750       6.21750914
Te       5.35387625       2.37087546      -0.27751339
Te      -0.52235821       5.56590057       3.47500050
Te       1.74616075       0.18134843       0.97408497
Nd       0.61161597       2.87189887       2.22549659
Te       1.53341577       4.56245089      -0.30636413
Te       3.48938791       3.37527832       3.47487836
Te      -0.31169736       1.18302304       4.75600907
9
Lattice="4.243867874145508 0.0 -0.0022287126630544662 0.0029689534776393086 4.243519698089086 0.0023161801509559155 0.0 0.0 7.815554618835449" Properties=species:S:1:pos:R:3 pbc="T T T"
O        1.76085488       3.77757524       5.89677378
O        3.88316784       3.78114565       0.25502752
Ba       1.75937719       1.65738030       0.25594339
O        1.75993054       3.77985316       2.43349358
Zr       3.88179508       3.77901064       5.97617290
Zr       3.88323383       3.77712174       2.35129721
O        3.88103413       1.65519305       5.89526651
Eu       1.75974710       1.65624007       4.16401680
O        3.88064906       1.65544662       2.43188943
3
Lattice="2.8813283443450928 0.0 0.5826911330223083 1.3823941987072592 2.5286741117126112 0.5840878486633301 0.0 0.0 7.413980484008789" Properties=species:S:1:pos:R:3 pbc="T T T"
Ag       2.19861448       1.06966112       4.20887469
Ag       1.25288713       0.50923845       1.48602912
Ag       3.14959738       1.63395762       6.93829343
10
Lattice="6.6769795417785645 0.0 0.008527607657015324 0.021671169456049365 9.589537929026843 0.06072645261883736 0.0 0.0 9.638235092163086" Properties=species:S:1:pos:R:3 pbc="T T T"
Cs       4.87600763       2.57117254       7.51647502
Tl       1.54292234       4.62877155       9.56930233
Cs       4.88469008       4.02041846       2.71218470
Tl       1.54232283       1.95060491       4.74860180
Cs       4.89326948       7.36140601       8.98182602
Rb       1.54625812       5.68616668       5.84219181
Tl       1.55018471       6.76861593       2.09182554
Cs       4.89126016       8.80586780       4.17683427
Rb       1.53867036       0.89624973       0.98949590
Tl       1.55891166       9.41610311       6.93345080
4
Lattice="3.6645076274871826 0.0 -0.009349938482046127 -0.013986596695266763 5.1622401542284475 -0.00473318574950099 0.0 0.0 5.164453983306885" Properties=species:S:1:pos:R:3 pbc="T T T"
Er       2.70713070       0.23192916       1.76244266
Er       2.70043000       2.81364774       4.34181386
Zn       0.86863199       2.81336066       1.76643973
Tl       0.87480018       0.23202647       4.34999763
20
Lattice="3.244579553604126 0.0 0.0007714923121966422 0.0014060973278131814 10.065545937554855 -0.006082767155021429 0.0 0.0 10.065049171447754" Properties=species:S:1:pos:R:3 pbc="T T T"
Hf       0.91152704       8.18869706       2.53896921
Be       0.91252051       8.68439347       5.57653371
Ti       2.53382007       7.90397603       9.95207814
Hf       0.91152570       6.67215793       7.57418099
Ti       2.53247269       0.50285719       1.32195068
Hf       0.91139898       3.15826601       1.03705082
Ti       2.53212513       4.27367547       6.40207860
Hf       0.90950436       1.64191197       6.07653545
Ti       2.53423842       7.00856254       4.94209880
Ti       2.53488926       9.32934086       7.29147874
Ti       2.53344333       9.94721535       4.30210193
Ti       2.53351741       4.91642643       9.34128532
Be       0.91069319       6.19418895       0.53923683
Be       0.90941002       1.14101831       3.03102381
Be       0.90963273       3.64205124       8.07880302
Ti       2.53074425       1.92532135       8.72064272
Pd       0.91011563       4.91227265       4.30661736
Rh       0.91112188       9.94543409       9.33611990
Ti       2.53294073       5.55468733       2.21575363
Ti       2.53211115       2.81552499       3.67459212
4
Lattice="4.480886936187744 0.0 0.0007695335079915822 0.0018381678215753695 4.403904054397726 0.0008250859682448208 0.0 0.0 4.666617393493652" Properties=species:S:1:pos:R:3 pbc="T T T"
Tl       3.07917115       0.34460657       0.02144226
Hg       0.83887406       0.34466320       2.35378319
Cd       3.07886296       2.54713024       2.35490052
Sc       0.83888533       2.54628107       0.01990689
4
Lattice="3.7555737495422363 0.0 0.006250171456485987 0.005751760741134051 3.7583714818966802 0.004808132071048021 0.0 0.0 9.70559024810791" Properties=species:S:1:pos:R:3 pbc="T T T"
Tb       0.86218978       1.18273030       9.49169034
Sr       2.74362416       3.06251472       6.50637108
Tb       0.86183533       1.18321541       3.50619537
In       2.74328175       3.06315138       1.64764543
18
Lattice="5.65527868270874 0.0 -1.3258389234542847 -1.3484246132759379 6.6585972331855885 -1.3007471561431885 0.0 0.0 8.47217845916748" Properties=species:S:1:pos:R:3 pbc="T T T"
Ag       1.93373500       0.47014029       1.36895360
Ga       0.47659644       2.76959034       6.43860762
Li       2.32941806       5.26695285       1.35450009
Au       4.82755692       0.46724260       1.00776352
Au       5.06886902       0.87593856       6.70249639
Au       1.95047460       4.84837073      -1.35897826
Li       3.18616718       2.86298453       5.40981972
In       3.56675835       2.84549586      -0.05411891
Li       0.74590205       2.96006695       0.81621779
Au       2.87450918       2.92782157       2.65379646
Au      -0.40175272       5.11875701       2.11119679
In      -1.03415197       5.16186211       4.96216775
Au       0.26461292       2.81674305       3.72873499
Au       2.16066829       0.75280238       6.96479090
Au       4.50676236       0.81268012       3.87557194
Au      -0.88539297       4.75063067      -0.68170467
Ag       1.84855829       5.19488598       4.16576656
Ga       1.88446892       0.75367052       4.24136774
4
Lattice="3.7038872241973877 0.0 2.1368019580841064 1.2333336066272973 3.495838104969879 2.135749340057373 0.0 0.0 4.277531147003174" Properties=species:S:1:pos:R:3 pbc="T T T"
Ga       2.26957814       2.10815577       4.81404121
Co       1.03504176       1.23257514       2.67610069
Ni       3.50405954       2.98325924       6.95310857
Sn       3.50556894       0.36062100       2.67683594
8
Lattice="4.640219211578369 0.0 -1.3758245706558228 -0.40742048724909097 4.625102576305836 -1.3785370588302612 0.0 0.0 8.515144348144531" Properties=species:S:1:pos:R:3 pbc="T T T"
Ho       3.95322433       0.67285320       2.90862492
Cd       1.02944517       0.01224283       1.55724418
Li       2.45995642       4.11357425       6.38600136
Cd       0.34392261       1.80028180       7.76620451
Ho       1.37835580       2.92932533       2.73187734
Cd       3.14468687       2.32431583       0.18258993
Cd       4.30172798       3.58949763       4.08086885
Cd       2.18642728       1.27745400       5.45732029
20
Lattice="3.213775396347046 0.0 -0.0006456840201281011 -0.0076308055797498974 8.828866521982077 0.00041429250268265605 0.0 0.0 8.828789710998535" Properties=species:S:1:pos:R:3 pbc="T T T"
Cr       2.49700809       7.45658616       0.11560950
Nb       0.89178017       6.49920561       4.26646042
Nb       0.89523402       0.72781811       1.22214850
Be       0.89462275       2.52925824       8.25047704
Nb       0.89128661       5.14173210       8.68573827
Be       0.89643350       0.28937245       3.83958182
Cr       2.49890022       6.23679162       6.58016272
Be       0.89371617       4.70139220       6.07133452
Be       0.88899802       6.93967760       1.65418384
Mn       0.88951559       8.02923527       7.16723768
Cr       2.50299116       1.82471198       3.32254069
Cr       2.49663954       8.60285213       5.36949641
Nb       0.89548782       2.08399719       5.63303750
Mn       0.89509177       3.61513512       2.74489992
Cr       2.50048155       3.03352570       0.96017797
Cr       2.49912426       4.18791473       4.53428789
Cr       2.50115901       3.61516880       7.16091786
Cr       2.49581725       8.02853800       2.74709088
Cr       2.50262296       0.98454382       7.74323250
Cr       2.49864130       5.40405873       2.16661648
18
Lattice="4.123217582702637 0.0 -0.0008834521868266165 0.0019197971493826816 9.528441235737136 0.21257707476615906 0.0 0.0 13.246912956237793" Properties=species:S:1:pos:R:3 pbc="T T T"
Cl       0.31598784       2.19597244       9.48042217
Pb       0.31934417       7.13366361       2.61750460
Pb       2.37911241       2.41786124       1.45243403
Cl       0.31542969       2.87130885      12.90041651
Cl       2.38039234       9.04003554       0.60412670
Mn       0.31879211       2.01354720       5.95690180
Cl       0.31694654       5.82136078       5.09412931
Mn       2.37945551       7.73736667      11.92318168
Cl       2.38105603       8.49055649       4.04157698
Cl       0.31827605       6.52562262      12.25037716
Cl       2.38225116       8.56610151       9.87009566
Pb       2.37746308       7.16149320       6.68799245
Cl       0.31636555       5.58317724       8.62948146
Pb       2.37823319       3.94559567      10.08654736
Cl       0.31840103       9.28039315       6.90524432
Cl       2.38268199       3.01734366       6.54440833
Cl       0.31678232       2.13387154       3.59797917
Cl       2.38080230       5.23686145       1.88667758
14
Lattice="7.637338161468506 0.0 4.3912835121154785 2.033269426503551 6.438862420322574 4.657318592071533 0.0 0.0 8.232036590576172" Properties=species:S:1:pos:R:3 pbc="T T T"
In       7.48521494       4.62513303       6.92866616
Rb       1.58250481       2.50712918       7.91771126
Tl       0.59430998       0.08635797       2.91362173
Cd       4.84774780       4.07372796       8.63104660
Cd       5.73772126       2.20159630       6.36876163
Hg       4.04593859       4.86648345       5.42036293
In       2.91139828       5.47596917      10.68458312
Cd       3.87100252       0.93915425      10.35825112
Cd       2.05161461       2.81875007       3.96843655
In       6.83610231       1.73537927       9.53372682
Cd       6.93704036       5.96549104      12.46817266
Cd       8.49818501       5.66995540       9.53092767
Cd       5.45055178       3.32234422      11.66465145
In       3.61344311       0.40439154       5.16895963
9
Lattice="4.546424388885498 0.0 -0.0025312271900475025 -0.0004443470936921217 7.191623674016758 -4.1594767570495605 0.0 0.0 8.313910484313965" Properties=species:S:1:pos:R:3 pbc="T T T"
Ca       1.45816147       1.06488788       4.99094209
Ca       3.73285292       7.12516427      -1.90520848
Ca       1.45832342       4.66514154       4.98694606
Zn       1.45765459       0.46844464      -0.20924868
Ca       1.45899649       2.86576363       1.86688668
Zn       1.45784298       5.26354920      -0.20664433
Ca       3.73186359       2.86568347      -0.98282470
Ge       3.73237038       2.86054047       3.94698154
Ca       3.73223244       5.79916545       2.24919196
4
Lattice="3.622957229614258 0.0 0.0010584044503048062 -0.0019045034781581575 3.6384250901595365 -0.0035966834984719753 0.0 0.0 6.934773921966553" Properties=species:S:1:pos:R:3 pbc="T T T"
Li       0.79047911       1.65813239       1.09725525
Li       2.60010884       3.47760691       2.54949489
Ag       2.60006826       3.47673835       6.75469210
Ca       0.78905577       1.65615966       4.87487768
11
Lattice="4.1750993728637695 0.0 -0.6575146317481995 -0.105436682004905 4.214366645719326 -0.6676710844039917 0.0 0.0 13.522357940673828" Properties=species:S:1:pos:R:3 pbc="T T T"
La       1.96383736       1.60822413       3.01495251
Ga       1.49283025       3.28452033       0.05000847
Ga       2.32315983       4.14719236       5.30895498
Ga       2.96455292       2.64745430       9.33849942
Ga       3.63491543       1.17716242       0.05474797
Ga       0.02668752       3.92617319       4.28528391
Nd       0.49472256       2.25282490       7.25695376
Ir       3.35875815       3.05110967      11.82978378
Ir       2.81118233       0.32706532       8.38035848
La       1.11895274       0.73680804      11.20048871
Ir       3.80766019       3.52053740       1.15662261
6
Lattice="4.195706367492676 0.0 1.2524633407592773 1.9100949622131216 3.7339404413097466 1.2499876022338867 0.0 0.0 7.657210826873779" Properties=species:S:1:pos:R:3 pbc="T T T"
Li       0.88495500       0.09115504       6.61138831
Li       2.37071809       1.00100642       1.62160075
In       3.93652518       1.95662971       4.03148866
Au       4.72409888       2.43902826       9.05172090
Au       3.14972293       1.47559155       6.67477212
Li       5.50311130       2.91422098       6.44912658
14
Lattice="6.593689441680908 0.0 3.650036334991455 2.22738110926764 6.465335455773262 3.7377076148986816 0.0 0.0 7.729132652282715" Properties=species:S:1:pos:R:3 pbc="T T T"
Li       5.59283595       4.33265195       6.00645305
Li       2.29273191       4.33239299       8.04417807
Ge       4.48072202       1.09914760       4.13885540
Zr       4.48027162       1.09682723       7.99760114
Zr       1.18077091       1.10052296       6.17758812
Ge       1.18191649       1.09896503       2.31420850
Se       6.70506517       2.65784815       7.90056548
Se       7.79712594       6.01041207      13.68422546
Se       4.48033229       6.00713031      11.84390254
Se       4.48635833       6.03308650       7.94939903
Se       7.81717275       6.03737098       9.81008040
Se       3.38749919       2.65649244       6.06218881
Se       3.36768188       2.62905433       9.93077668
Se       6.69840325       2.63532575      11.79048624
7
Lattice="4.189131259918213 0.0 -0.009409081190824509 -0.006537149271121791 3.95903595998265 -1.0797923803329468 0.0 0.0 7.845751762390137" Properties=species:S:1:pos:R:3 pbc="T T T"
Sr       3.77396812       3.08382348       2.31115037
Sr       3.77343854       2.22277291       6.96864240
O        3.77695034       0.67179335       1.24403729
As       1.68205466       1.48025899       4.22581020
Zn       1.68249573       0.67668816       1.26842489
O        1.67877794       2.65681944       0.73677113
As       1.67656121       3.82345164       5.05153266
12
Lattice="6.9630045890808105 0.0 0.21405024826526642 -0.16572498709143704 7.64684025023829 -3.9127368927001953 0.0 0.0 8.586673736572266" Properties=species:S:1:pos:R:3 pbc="T T T"
Br       2.20689378       0.40915960       5.64297912
Sn       3.85604323       2.92497195       5.89987050
Sn       3.76927611       6.74642170      -0.34663998
Sn       0.36773240       2.92819550       1.49991231
I        5.38019585       5.37544982       1.94092600
Sn       0.29030832       6.74842124       3.83763288
Br       5.49942704       5.43737945      -2.43105942
I        2.32405475       0.47478788       1.27275823
Br       2.11905053       4.25497631      -0.59597923
Br       5.58538347       1.59467953       3.81101910
Br       1.96032279       4.18815608       3.77782874
Br       5.75552888       1.65787716      -0.55979542
5
Lattice="4.04218053817749 0.0 0.0021952027454972267 0.004417366737462728 4.044722529082872 0.0019357309211045504 0.0 0.0 4.024448871612549" Properties=species:S:1:pos:R:3 pbc="T T T"
H        2.09326419       2.15720668       3.22746825
Pt       2.09277851       2.15812256       1.21549802
Cd       0.06882068       0.13553805       1.21385871
Rh       0.07174592       2.15715894       3.22720013
Rh       2.09063256       0.13628678       3.22722239
9
Lattice="4.939092636108398 0.0 1.663811206817627 2.483260505675104 7.73783685043219 0.8412734866142273 0.0 0.0 8.169384956359863" Properties=species:S:1:pos:R:3 pbc="T T T"
Nd       2.66671508       3.80347558       4.44908490
Y        6.80017337       6.40201985       8.52284969
Y        1.85166012       1.20518244       6.85283586
Nd       3.49217722       1.20229260       1.97916537
La       5.96660230       3.80245123       2.81669891
Nd       4.32647246       3.80260966       7.68634409
Nd       3.50154334       6.40403212       1.98774647
Y        5.13225170       1.20401096       5.27601322
Y        5.14104605       6.40196635       5.28240290
10
Lattice="3.826707601547241 0.0 -0.9565151929855347 -0.5009948271477358 7.607325914132351 -1.8945032358169556 0.0 0.0 8.162221908569336" Properties=species:S:1:pos:R:3 pbc="T T T"
Dy       2.65575746       3.70491568       3.78429108
Tm       1.47330817       2.44396357      -0.99917790
Li       0.03257329       4.96591653       1.42365509
Dy       1.23398829       6.25351774      -1.89521309
Dy       2.40690289       7.50124097       2.82932264
P        0.58793278       5.56755726       3.64470812
Li       0.27986738       1.18669616       2.35572839
P        3.55395751       0.60880093      -0.83373864
P        3.30902971       4.37916469      -1.75766061
P        0.83672467       1.76092500       4.58910768
8
Lattice="4.211918830871582 0.0 -0.004020499065518379 -0.002601384896579059 5.9800614420902125 -0.02295008860528469 0.0 0.0 8.45511245727539" Properties=species:S:1:pos:R:3 pbc="T T T"
Sn       0.68655996       2.33591000       5.89710690
Tb       0.68407664       2.34008996       1.66707110
Tb       2.79221350       5.33465513       3.67100973
Sn       2.79546956       2.34014432       7.94810788
Tb       2.79093874       5.32871827       7.91401252
Se       2.79325805       2.34248987       3.60448261
Se       0.68614916       5.33333773       5.72979207
Se       0.68539231       5.33303689       1.61191263
4
Lattice="3.6030802726745605 0.0 -0.0020536959636956453 -5.4704873134644335e-05 3.6019086833614335 -0.0015347652370110154 0.0 0.0 8.732027053833008" Properties=species:S:1:pos:R:3 pbc="T T T"
La       2.41237506       0.51694093       1.43966612
Zn       2.41315419       0.51817433       5.63878913
Sm       0.61000871       2.31826352       7.48758427
Tm       0.60884457       2.31712652       4.01938338
15
Lattice="7.398674964904785 0.0 4.7371344566345215 3.0081548799077495 6.995373711318259 4.113203048706055 0.0 0.0 8.610367774963379" Properties=species:S:1:pos:R:3 pbc="T T T"
Na       3.02514432       2.03216868      11.08703171
Na       2.39941032       4.87337316       8.01052666
Na       8.09873242       4.29247566       9.50130068
Na       5.28460885       2.28355462       8.32034235
Na       8.92090010       6.43570724      15.49930651
Na       6.33258440       2.72290509      11.91485866
Na       1.99024210       1.58890924       7.48466999
Pb       0.77565891       0.89971150       4.57171512
Pb       4.08984295       3.77946540       5.34825028
Cd       5.66043780       5.65231719       7.45267113
Na       0.22134010       0.02421508       1.28878273
Pb       4.23400556       0.53433254       5.44310882
Pb       6.72604095       6.11052474      12.91611471
Pb       7.53037188       3.41137743       6.21840190
Pb       4.60322693       5.19779930      10.59403981
9
Lattice="5.046116828918457 0.0 -0.007288532797247171 -0.010101719339246473 4.919407963324066 -2.8478333950042725 0.0 0.0 5.683003902435303" Properties=species:S:1:pos:R:3 pbc="T T T"
La       3.88320021       1.20752713       4.74754399
O        4.99035617       4.43587747      -2.54438357
O        2.76690079       4.43918000       0.66287151
O        4.98982236       3.12872987      -0.09590648
O        2.77173053       0.98099992       1.15114912
Os       3.87740295       4.48844499      -0.94009058
La       1.35719484       2.85101253       1.90436689
O        2.76713888       3.12465470      -1.78490020
O        4.99647030       0.98424300       2.66289273
