8
Lattice="3.661574125289917 0.0 -1.3468345403671265 -0.49474195418093836 3.6302925822999823 -1.3534791469573975 0.0 0.0 5.691958904266357" Properties=species:S:1:pos:R:3 pbc="T T T"
Be       0.00980062       2.21322827       0.58876160
Co       1.43488770       1.74447605      -1.20949414
Si       2.06634849       0.37302999       0.53957511
Be       2.22530426       2.65414551       0.96204409
Be       0.64265084       0.83944166       2.31155210
Co       3.01437768       3.56172947      -2.55763757
Be       0.77979197       3.09764332       2.69085067
Si       2.88096954       1.30578311       2.75421010
3
Lattice="4.031116962432861 0.0 0.0007600485114380717 -2.0221944917584547 3.487260133989937 0.0010022548958659172 0.0 0.0 7.6985955238342285" Properties=species:S:1:pos:R:3 pbc="T T T"
Ba       1.51789171       0.64373849       5.99807180
Ba       1.51217419       2.97042665       3.00465934
N       -0.49991275       1.80654212       4.49880202
10
Lattice="3.769068956375122 0.0 0.030816763639450073 0.04722046197353862 6.843775447503018 0.10982728749513626 0.0 0.0 5.493829727172852" Properties=species:S:1:pos:R:3 pbc="T T T"
Zn       0.21095285       0.22373413       2.86469529
Zn       0.22854990       2.82328169       0.21861435
B        2.11242406       3.52856799       1.28190974
Zn       2.10552885       1.37095258       1.43475091
B        2.13517472       6.30746116       3.96265934
Pt       2.10462949       1.58072330       4.19531508
Zn       0.23337979       3.54040830       2.94060171
Pt       2.12479830       4.43256495       4.77350885
Zn       0.25625498       6.46550110       0.12135533
Pt       2.13628863       5.52646496       1.95856098
4
Lattice="3.3053295612335205 0.0 1.9126137495040894 1.103275998165031 3.115789336781461 1.9126389026641846 0.0 0.0 3.8194336891174316" Properties=species:S:1:pos:R:3 pbc="T T T"
Si       3.71940302       2.79484432       5.82324290
Be       1.51530755       1.23727224       2.00183811
Fe       0.41326395       0.45777422       3.90984847
Fe       2.61725988       2.01611836       3.91313393
12
Lattice="3.7979414463043213 0.0 -3.0518012046813965 -5.0437638284251705 0.9858045161380387 -5.665760517120361 0.0 0.0 6.971164703369141" Properties=species:S:1:pos:R:3 pbc="T T T"
Ga      -0.36975891       0.59496006      -3.50002054
Pd       0.13870317       0.30355443      -2.81672865
Ga       1.75425947       0.18319876       1.93219911
Sr      -1.68954774       0.72361450      -0.37532915
Pd      -0.40296195       0.79569782      -3.23510169
Pd       1.77860822       0.34968578      -0.85879706
Ga      -0.22759100       0.18600572       3.54811931
Pd       0.39820655       0.24614447       0.85935444
Ga      -1.45474907       0.42253801      -0.58367495
Sr      -3.51888915       0.79300750      -3.58348669
Pd       2.36930176       0.23702184      -4.07301798
Ga       1.89968844       0.12313569      -1.17885265
4
Lattice="4.128129482269287 0.0 1.1209603548049927 1.912859160834514 3.6588063566711178 1.1204665899276733 0.0 0.0 8.16300106048584" Properties=species:S:1:pos:R:3 pbc="T T T"
As       1.70713239       1.25830362       7.22943973
Ca       5.34470430       3.46146583      10.15703716
Nd       4.13334379       2.72658603       6.45947591
I        2.73630795       1.88179909       3.43917406
10
Lattice="4.177802085876465 0.0 0.003918839152902365 0.001003623079735343 5.993100082285888 -0.9722337126731873 0.0 0.0 12.413348197937012" Properties=species:S:1:pos:R:3 pbc="T T T"
Pb       1.02017859       3.92646487       3.66058524
Ba       3.11515207       4.42006499       6.48145022
Cd       3.11965651       5.78652101       9.98802884
Cd       1.02413961       1.25568557       8.09710450
Pb       3.11579363       5.47936188       1.56586119
Pb       3.10617771       2.71263839       9.67226064
Ba       1.02100101       2.08026267       0.42152749
Cd       1.03447759       1.03710875       4.71202557
N        3.11086075       0.54779666       0.56536977
N        1.02502312       5.63932348       5.53864355
4
Lattice="3.6639139652252197 0.0 -0.0011999745620414615 -0.0022834363347089114 5.287504656784414 -0.0005706704687327147 0.0 0.0 5.287469863891602" Properties=species:S:1:pos:R:3 pbc="T T T"
Ho       1.49801445       2.63106951       3.95336862
Cd       3.32983540       2.63253437       1.30820780
Hg       3.32895238       5.27548950       3.95284404
Ho       1.49665175       5.27577189       1.30851505
20
Lattice="7.357231616973877 0.0 -1.446823000907898 -1.4726900648898327 9.691192573941033 -1.3532934188842773 0.0 0.0 9.833307266235352" Properties=species:S:1:pos:R:3 pbc="T T T"
Pr       1.04763552       1.70637035       2.30313870
Te       0.78953631       9.04499007       2.75049222
Pr       2.03614483       5.70196216       3.04988747
Pr       5.50917532       4.63780673       0.61413590
Te       5.22579590       1.66024983       1.42718014
Dy       0.33061781       6.31066369      -1.12600597
Dy      -0.97364389       7.24731172       4.18630535
Te       1.55619762       7.11148081       6.03464641
Te       6.33751268       3.05157787       7.54192676
Pr       3.18962987       8.40110968       0.92098157
Pr       3.60055635       4.80977480       6.97017616
Pr       3.68986006       9.68484835       7.05037817
Te       1.52966990       3.16666832       5.12916332
Pr       1.56342479       0.65609019       7.13061636
Te       2.25902431       4.26908693       0.10363119
Te       4.94370681       5.10581333       4.04543393
Te       0.85360481       9.43749131      -1.14134058
Te       5.14063695       7.26145466      -1.30082068
Pr       5.88951763       2.26574993       4.40693407
Te       4.46965363       8.99236821       4.05406395
15
Lattice="7.385106086730957 0.0 0.35384029150009155 -0.62029301645756 6.755853750255084 -3.6597635746002197 0.0 0.0 7.802131175994873" Properties=species:S:1:pos:R:3 pbc="T T T"
Na       0.54761151       0.81822440       4.47317402
Te       3.93247196       1.78974384       5.80255697
Na       5.28305142       4.84560301      -0.57589845
Na       1.53078531       4.03154016      -1.00241668
Na       3.03600726       4.84440383       2.55502624
Y        3.05998823       0.96795698       1.37085193
Na       6.53697774       4.27244484       3.52235992
Y        6.84309023       1.23261928       0.83799231
S        4.88466585       2.94023054       1.53087525
S        6.33529757       2.55666471       5.99294290
S        1.65889347       0.19026809       6.81030436
S        4.04545889       0.15969300       3.98469575
S        0.20952246       6.30401871      -1.45503842
S        1.21746223       3.03853224       1.49525867
S        4.38879449       5.95410164       4.76613734
12
Lattice="4.319445610046387 0.0 0.0002768370904959738 0.004518464487665171 8.93510799600006 -3.4351274967193604 0.0 0.0 10.627632141113281" Properties=species:S:1:pos:R:3 pbc="T T T"
Se       2.24292642       5.47567492       4.46234471
Cd       2.24374366       8.19753836       5.19719870
Cd       0.08391400       6.68102608       3.35558974
Ho       0.08086701       1.46387626      -0.13704385
Cs       0.08358301       5.45107214       7.75274463
Cs       2.23963046       0.49964309       4.22603405
Ho       2.24167136       4.48758783       1.49745172
Se       0.08455194       6.32991393       0.75877333
Se       2.24299259       8.55686120      -2.83810725
Se       0.08041799       0.47257712       7.52541952
Se       0.08047708       2.76678632       2.34756692
Se       2.24284470       3.18699221      -0.99090642
12
Lattice="4.231079578399658 0.0 -0.7713271975517273 -0.2641256127723467 8.1584921330928 -1.7010536193847656 0.0 0.0 9.546107292175293" Properties=species:S:1:pos:R:3 pbc="T T T"
La       2.13028115       1.25590022       8.10549117
La       3.56799629       6.83284249       3.96243806
La       1.15759440       0.14710469       3.12521647
Ru       1.52709328       4.79438946       4.81513823
La       2.01230159       5.36394281       7.28862252
Ru       1.63106136       0.70079151       5.58807455
Cl       2.96508812       6.13708433       0.88091659
La       1.04135036       4.23322450       2.29742158
Cl       3.08287124       2.07443295       1.72647070
La       3.69676524       2.74731728       4.83481667
Cl       0.06969789       3.43257487       8.69030063
Cl      -0.04094057       7.52926735       7.84155011
4
Lattice="4.675533771514893 0.0 2.6970508098602295 1.5597141560784282 4.408330159797598 2.697567939758301 0.0 0.0 5.398190021514893" Properties=species:S:1:pos:R:3 pbc="T T T"
In       3.70152079       1.94875179       6.74867815
Ce       2.14251965       0.84649576       4.05168608
Tm       5.26079529       3.05201634       9.44780295
Tl       2.14370074       4.15357836       4.05154922
4
Lattice="4.383735179901123 0.0 -1.6295666694641113 -2.319579684942937 3.9286382516245157 -0.02955447882413864 0.0 0.0 6.078253269195557" Properties=species:S:1:pos:R:3 pbc="T T T"
Hg       0.43347283       1.73263783       4.23787906
Pb       1.89136194       2.62530113       1.58246968
Zn       3.05303908       0.66393735       4.63078911
Hg      -1.02631332       3.52638689       0.54145809
10
Lattice="5.202292442321777 0.0 2.9119462966918945 1.7904095454607043 4.883460861552295 2.911078453063965 0.0 0.0 6.108489513397217" Properties=species:S:1:pos:R:3 pbc="T T T"
Tm       0.99685172       2.35316838       3.46839756
Bi       2.48091651       3.38952966       6.91925175
Er       4.48552680       4.79202544       9.44433842
O        3.14063325       3.05825353       3.01189775
O        6.03720442       3.85069597       7.98892918
Bi       4.18440353       0.94750306       3.86752770
O        1.40833616       1.41970221       1.40426724
O        1.96092274       0.63082473       4.45013700
O        4.11765866       1.68858862       6.06908468
O        5.85372224       4.12286195       4.94604854
20
Lattice="6.22269344329834 0.0 -3.089482307434082 -3.374045326845647 6.814559150433813 -1.677160620689392 0.0 0.0 7.280635833740234" Properties=species:S:1:pos:R:3 pbc="T T T"
Ag       4.96187663       1.65579531      -1.90410469
F        5.39233322       0.31233338       0.38550286
Ag       3.23206124       5.97220324      -3.13780498
Ag      -1.74326626       5.81413691       3.18111651
Ag      -0.71766793       4.02542975      -0.10530597
Zn       1.98992562       2.81892915      -0.69782537
Ag      -0.37057911       6.40021638      -1.76320022
Ag       2.33994066       2.08339456       2.81343204
F        0.89016125       3.82673980      -2.15053013
F       -0.85998197       6.23372508       0.92362100
F        1.29421697       1.57471002       0.66036818
F        3.64007592       4.05120508       2.89207322
Rh      -0.35376153       2.53751833       3.91184584
F        1.61916695       4.48694985       0.44257735
F        1.44250859       6.35690466       2.68054238
F        3.86694201       3.30705278      -0.28837750
F        2.48648156       1.37824126       5.23990682
Rh       1.67699790       6.49068918       0.65622256
F       -0.80322019       1.66723880       5.75292216
F        0.16232518       3.77524275       2.47076358
8
Lattice="5.187026500701904 0.0 1.5793185234069824 2.353239158688765 4.625031083095575 1.5785129070281982 0.0 0.0 9.334178924560547" Properties=species:S:1:pos:R:3 pbc="T T T"
Nd       4.25536057       4.19029065       5.86955924
Hg       4.72591946       1.29598487       4.32597720
Hg       2.85415074       0.14920497       1.15344684
Nd       2.37268963       3.03472895       2.74043870
Hg       1.42445170       2.45405395       5.86392726
Sm       3.78931461       0.72245704       7.40718076
Hg       3.31927781       3.61582657       8.94860806
Nd       5.67689052       1.88064762      10.52439600
14
Lattice="6.858694076538086 0.0 2.0857014656066895 2.249710161356801 8.57641394392493 3.3042640686035156 0.0 0.0 8.228129386901855" Properties=species:S:1:pos:R:3 pbc="T T T"
K        4.91439950       0.60074253       6.65228928
K        6.91987926       5.36897969      10.81877543
K        4.67979152       7.18139181       8.42079802
K        6.35180588       7.70762422       5.20781615
O        3.30507154       1.16760823       4.61142414
Hg       3.20136405       6.78509982       3.27365908
Hg       1.80413684       6.76612430       5.83919456
K        1.64531168       1.31898495       6.95041202
Hg       4.18046581       3.46279591       8.99307678
Hg       5.39420906       1.85328618       3.28586776
K        3.56551296       3.79101933       5.15497268
K        1.63132494       1.72336083       2.78813415
Hg       6.74540629       4.35137063       6.98877570
O        5.43012761       7.59222624      11.01497635
6
Lattice="4.417032718658447 0.0 -0.016985241323709488 -0.02091430013341076 4.417320332253167 -0.017738524824380875 0.0 0.0 6.4382195472717285" Properties=species:S:1:pos:R:3 pbc="T T T"
Ce       0.79161997       3.75722551       1.61951842
Ce       3.00770846       1.55306555       3.35081329
Ti       0.80129287       1.55237954       5.70937053
Ti       3.00106868       3.76197531       5.69116323
Ir       3.01435378       1.55234742       0.61435490
Ir       0.78839720       3.76009303       4.34265630
20
Lattice="10.097055435180664 0.0 -4.987893104553223 -4.575187717487182 9.879993959494042 -0.4836984872817993 0.0 0.0 12.017430305480957" Properties=species:S:1:pos:R:3 pbc="T T T"
K        4.89455523       2.74301454       4.10399177
K       -2.12614248       5.29369586      11.14360003
K        2.59529332       2.02348248       8.49403765
Cs       4.74313031       5.23904830      -0.57869736
K       -1.18900372       8.65117574       6.65320060
K        7.50924651       2.66804780      -3.56324937
K       -4.01794530       9.64743048      10.48035261
K        2.86610897       6.68158364       7.31295261
Hg       2.17165165       9.75623327       5.20407990
K        1.37518420       6.59672703       2.86509267
K        9.21286024       1.13604562       2.92184364
K        5.92348261       7.33682309       2.95949275
K       -1.02763105       4.44298880       4.43210254
Rb       1.12066622       9.69146323      -0.60903018
K        0.80107566       3.98945745       0.28298350
K       -2.11034753       7.06190463       2.03660693
Hg      -0.33382268       4.96710905       8.04595728
O       -0.92908964       4.96080848       1.73343594
O       -3.26605928       9.70203976       8.04761174
Cs       0.86004642       0.82529439       3.61669860
4
Lattice="79.90760040283203 0.0 833.4815673828125 68.86034558026721 30.078612271432792 824.6456909179688 0.0 0.0 871.3945922851562" Properties=species:S:1:pos:R:3 pbc="T T T"
K       30.39392845       9.27647276     678.34226159
Ag      34.34797253      10.95243067    1171.02700406
S      109.21503249      23.18026450    1630.51058702
Hg      52.72866722       3.19064045     810.95246989
18
Lattice="49.94834518432617 0.0 372.95770263671875 31.92309507262939 12.782326683638292 378.36456298828125 0.0 0.0 334.8429870605469" Properties=species:S:1:pos:R:3 pbc="T T T"
Rb      36.02810272       3.08416441     326.15115335
Rb      33.75680646       3.38942834     457.55596563
Rb      55.19884404       2.36350764     594.84307414
Ca      55.65736332       4.73026206     741.04162459
Rb      13.74084780       1.71732390     126.68627846
Rb      39.94952326       6.35050682     638.31161738
Rb      68.76428626       8.78226649     755.99697966
I       21.42749854       3.75960096     450.81371298
Rb      40.75562981       8.61223410     642.26149994
Rb      65.52352904      12.34833659     749.49411402
Rb      38.26104610       3.56784490     376.11419695
Cs      15.96426928       5.49993038     503.78926330
Li      69.30806800       9.71725762     817.58690214
Rb      33.34332168       7.29201816     455.70945213
W       25.39343811       0.46478282     456.34466880
Cs      32.23766504       8.09332647     340.12721263
Rb      21.02402338       0.66479986     308.36847272
Ag      68.61473217      11.37597953     785.96168097
10
Lattice="17.026813507080078 0.0 41.27781677246094 3.6651740338311054 6.059548966166076 37.89112854003906 0.0 0.0 44.94821548461914" Properties=species:S:1:pos:R:3 pbc="T T T"
Sc      12.57544520       1.25042621      38.13172907
Rb       6.61188900       2.69773808      66.55146558
Cl      13.39617704       3.80166230      72.88202273
Rb       4.38841894       0.10741366      25.79292600
Cl       9.97621744       5.76947198      86.95858546
Br      12.18647923       3.29479227      50.73594998
Cl      13.86248077       0.84962220      68.73624803
Cl      16.27161476       5.05945562      66.29705276
Cl       3.55523665       2.07305221      30.32416220
Cl      11.73473544       1.80301749      46.38168844
10
Lattice="23.061717987060547 0.0 51.87492370605469 27.675034732860695 4.779022512628056 50.43389129638672 0.0 0.0 56.35323715209961" Properties=species:S:1:pos:R:3 pbc="T T T"
Zr       5.11315989       0.53282873      43.48377244
Rb      31.77072511       2.81261751      73.78812770
Rb      23.46841762       2.75849564      80.79175319
I       46.80325772       4.71789300     142.70680907
Rb      34.84563403       3.71130059      81.72275495
Ru      32.59587422       1.68262525     116.06506098
O       18.53376214       1.73296585      88.55614122
O       31.72631702       2.79015380      96.41072050
Rb      24.98776686       0.81749565      73.83296733
Te      20.12126982       1.53639565      96.40322368
7
Lattice="3.575845241546631 0.0 0.7383849024772644 1.3973576629321938 5.877464706029024 1.7598406076431274 0.0 0.0 8.458921432495117" Properties=species:S:1:pos:R:3 pbc="T T T"
Sm       2.54227450       2.28479654       7.71033912
Nd       0.16928558       0.70311857       1.65336273
Co       4.52249873       4.11353088       7.07921792
Co       1.91764217       2.73743099       2.04555155
Sm       3.21881459       3.38176985       4.57310258
Sm       3.91318805       4.52321751       9.83752951
Ho       1.28897899       0.18653102       5.03971010
4
Lattice="3.1757633686065674 0.0 5.664825584972277e-05 -0.002842712277056319 3.505748073079023 -2.031510353088379 0.0 0.0 4.059665679931641" Properties=species:S:1:pos:R:3 pbc="T T T"
Li       3.14294643       0.76086265       0.01602854
Li       1.55143589       1.93165423       2.04081503
B        1.55340298       3.10306803       0.00793603
B        3.13895388       3.10535321       0.00673507
18
Lattice="3.117905855178833 0.0 0.9039678573608398 -0.5012040358953374 7.5537109155393525 2.5039055347442627 0.0 0.0 8.87934684753418" Properties=species:S:1:pos:R:3 pbc="T T T"
Te       2.26366025       1.29923056       2.74552026
O        1.43229912       7.22084045       6.42807801
Cr       0.01963367       2.27745954       5.86040203
H        0.30355384       6.29605743       8.96226033
O        2.55415900       6.16981163       9.24471795
Cr       0.00645976       0.04741888       4.55504825
H        2.33827605       6.18272036       3.39177254
H        1.01280844       2.85531684      10.15005443
Cr       2.49896132       4.10079909       8.69715709
O        1.59738760       1.16059944       6.24162433
O        2.18131391       5.25131211       3.65632700
Li       0.86244458       4.64091241       2.30823035
O        0.39518085       1.86689394       3.80659543
Li       0.28116285       5.74795962       4.56944878
O        0.94800974       0.27770688       1.58390039
O       -0.12894055       4.19048931       6.03468112
O        0.83761370       4.28580072       9.05400421
O        2.71078473       2.35635287       8.66182814
12
Lattice="6.944808006286621 0.0 -1.1864755153656006 -1.803642554004611 5.835647829625724 -3.5227911472320557 0.0 0.0 7.052951335906982" Properties=species:S:1:pos:R:3 pbc="T T T"
Ce      -1.13473635       4.92701852       2.00057190
Ho      -0.53621910       2.98329906      -1.53248791
Ho       0.06927745       1.03396952       2.00429226
Ho       3.84528604       0.04524745       3.19504098
Ho       2.63202664       3.97077382       3.13846529
Se       4.18788877       4.42906298      -1.58731943
Ho       3.23665736       2.00845946      -0.35865317
Se       1.07282852       3.42470412       0.79320520
Se       5.40373950       0.59244746       5.54334324
Se       4.80259448       2.43769632       2.01460394
Se       1.67572628       1.57464479       4.32346321
Se       0.48567069       5.42621268      -2.65174377
3
Lattice="2.8242459297180176 0.0 -0.9165865778923035 -0.29624574471613657 2.8088372066905962 -0.9180823564529419 0.0 0.0 4.803186893463135" Properties=species:S:1:pos:R:3 pbc="T T T"
Mn       0.15278987       2.59193539       1.58995665
V        1.36261510       0.79380464       0.51896921
Al       2.14808878       1.66754351       2.93472630
4
Lattice="3.6003315448760986 0.0 0.006085375789552927 0.007503710181206362 4.488721774517353 0.0065237246453762054 0.0 0.0 4.488186836242676" Properties=species:S:1:pos:R:3 pbc="T T T"
Rh       2.75192521       1.58500767       2.74676106
Ho       0.95144221       1.58477931       0.49907257
Rh       2.75475510       3.82894730       0.50495889
Cd       0.95499295       3.82924535       2.74605785
12
Lattice="6.171802520751953 0.0 -1.4392421245574951 0.9505379947079007 5.538881118581165 -1.1799427270889282 0.0 0.0 5.709033012390137" Properties=species:S:1:pos:R:3 pbc="T T T"
Na       3.69449452       5.18934746       1.47638350
F        0.64989707       2.41912644       4.37541080
Na       4.66930752       0.05939325       0.27436231
Na       1.05504912       4.91238419       3.37977888
Na       4.57492790       2.43183133       2.84895592
F        6.18976959       3.11442188      -1.16258145
F        2.93148748       3.88512992       3.05697289
F        4.48318308       0.40974127       3.84927381
Na       1.40428324       2.34573333       1.95199985
F        3.30314816       1.36938934       1.35175279
F        5.62302761       3.79968956       0.66311408
F        0.59786254       0.25538182       2.36420952
9
Lattice="7.125182628631592 0.0 -2.644930839538574 1.9600533696581972 8.241254326069544 -1.0659310817718506 0.0 0.0 7.035953044891357" Properties=species:S:1:pos:R:3 pbc="T T T"
Ba       0.68621110       0.52432654       6.51263101
Ba       6.35000808       7.07442376       2.18177028
Ba       5.06591138       0.83952891      -0.55068395
Ba       2.84104333       2.23113774       3.12558282
Li       6.10351702       2.94288765       2.40646936
N        5.27254129       1.64191738       4.02809985
Ba       5.37112133       4.36761993      -1.59922555
Li       1.62275050       4.47949805       5.99317224
Ba       2.35620332       5.99450914       2.14880163
