12
Lattice="19.08656120300293 0.0 263.9350891113281 55.33837769940919 8.079455431635905 253.73391723632812 0.0 0.0 246.96847534179688" Properties=species:S:1:pos:R:3 pbc="T T T"
Tl      54.29610677       6.78031865     360.57518208
Li      73.09235846       7.99175086     653.53603452
Rb      22.43799054       2.78702662     321.23066381
Rb      54.46561238       7.14248086     346.59373969
Rb      61.53338928       7.22868870     527.11136765
Rb      19.18914231       0.47497621     424.58191722
Rb      24.14612428       3.39188480     175.35557703
Cs      34.77107309       3.53528041     455.09764111
Br      32.59521679       4.01969091     198.23510694
Zr      22.44194378       1.88798327     392.23864206
Rb      59.63155232       6.89118303     478.97523499
Rb      22.42430975       3.24236888     187.91845536
11
Lattice="5.889517307281494 0.0 -0.09738272428512573 -2.8004872866745245 4.52720662448705 -3.4207651615142822 0.0 0.0 6.208029747009277" Properties=species:S:1:pos:R:3 pbc="T T T"
F        0.92503455       2.85119462       2.23337082
Mn      -0.40906869       3.67057312       3.34561669
Ag       2.55251504       1.36549569       3.26050777
F        0.22597510       3.31500565      -0.51138024
F        4.94484249       1.41118988       3.90485237
Pb       2.46699884       3.56924617       0.01003741
Ag      -0.37983564       1.30646223       0.21038188
F       -1.85592198       3.18928385       2.12385379
F       -1.79170783       4.40072657      -1.71320674
F        3.89223682       0.22276760       1.21661888
F        2.15733734       1.15388449      -0.60550795
15
Lattice="6.540828704833984 0.0 10.007891654968262 4.337960044398699 5.482163135934054 9.933222770690918 0.0 0.0 26.891286849975586" Properties=species:S:1:pos:R:3 pbc="T T T"
O        3.80828989       0.83504332      13.73338561
O        8.93360842       3.57693583      26.36169909
O        8.58323551       5.02239637      36.53148736
O        6.40867234       2.82289209      26.50995762
O        5.20004549       4.76683583      25.77082406
O        2.65155697       2.76435816      13.79739236
O        0.70243207       0.08698133       3.12906999
Ru       4.15686487       0.87078957      10.18256273
O        1.98528060       2.40701000      25.00980908
O        9.11780537       4.56415329      25.83370403
O        3.20752422       1.42500472      27.40502783
O        5.65611534       4.08130142      13.54414356
O        5.63560122       1.62339279      11.42656055
O        7.42467894       1.35965184      27.50981491
O        1.24764813       0.19415184      25.77534662
5
Lattice="4.3400654792785645 0.0 -1.3802673816680908 -0.3717694779201502 5.713291774021491 -1.1867587566375732 0.0 0.0 7.489057540893555" Properties=species:S:1:pos:R:3 pbc="T T T"
Tl       1.33696244       4.90717259       0.36697357
Cs       0.00291117       2.16226410       3.69789040
Tl       2.56899758       5.29895354       4.22792500
Pt       1.10909472       1.25530322      -0.32895120
Bi       3.20508608       2.75913126      -1.26247274
4
Lattice="18.051210403442383 0.0 31.861684799194336 11.741726906691156 3.7702638795758663 34.942447662353516 0.0 0.0 40.30568313598633" Properties=species:S:1:pos:R:3 pbc="T T T"
Br      11.83793935       2.44456902      50.95379124
Rb      18.14827745       0.76038976      36.45199506
Re      23.62076000       3.15248341      85.71582092
Rb       6.17102185       1.63549141      36.05197744
8
Lattice="3.9064931869506836 0.0 -0.006872368976473808 -0.008569808567071376 3.907801291234635 -0.007087113801389933 0.0 0.0 7.773612976074219" Properties=species:S:1:pos:R:3 pbc="T T T"
V        1.46728281       3.54641643       1.95577146
Mn       1.46679475       3.54605144       5.84297100
Pd       3.42461529       1.59200603       5.84464330
Pd       3.42467446       1.59241761       1.95790268
Pd       1.47075512       1.59149232       3.85747514
Pd       1.47157664       1.59232071       0.06179131
Pd       3.41992840       3.54616581       3.85059069
Pd       3.42076427       3.54692746       0.05458303
4
Lattice="3.878013849258423 0.0 1.163111925125122 1.7665240409085283 3.4538888475250693 1.1648797988891602 0.0 0.0 7.090682029724121" Properties=species:S:1:pos:R:3 pbc="T T T"
Te       4.52080181       1.57387625       5.91726284
Te       1.74736339       2.24891857       1.06210139
Pt       3.28280474       3.19201201       2.99532346
Pt       2.98073050       0.63630140       3.99882145
4
Lattice="3.7182364463806152 0.0 -0.009618673473596573 -0.012241081893428776 3.716970075770587 -0.00933851022273302 0.0 0.0 9.437531471252441" Properties=species:S:1:pos:R:3 pbc="T T T"
Nd       0.12090595       0.76170962       0.64993181
Hg       1.97198135       2.62058370       8.09389523
La       1.97358786       2.62173952       3.16834459
Ca       0.12000159       0.76336265       6.16641006
14
Lattice="98.658935546875 0.0 639.3423461914062 71.08219274879959 38.04865564812565 629.422119140625 0.0 0.0 657.1494140625" Properties=species:S:1:pos:R:3 pbc="T T T"
Rb      27.98314726       2.18926718     604.04281373
Li      84.47220117      26.61792029     903.27730490
O      136.19329188      28.47426120    1597.00921803
Rb      73.00633565       1.14393135     570.74071748
Sn     135.39578262      28.38289072    1400.75236130
Rb      50.37760205       4.51894087     590.81858747
Nd      68.40568710      25.19309506     840.57610618
Br     131.18085298      18.06852669    1270.91107754
Rb      33.56025106       8.14256432     884.17566770
Ge      94.74305390      14.72913056     902.46824642
Rb      30.30041131       6.02044131     643.64684609
Sc      67.00262693      33.76255937    1144.45538542
Rb     121.17245734      20.80327971    1001.26547224
Rb      85.87111231       1.32129453    1138.12554597
18
Lattice="72.3006820678711 0.0 2112.658935546875 52.52195057176323 189.4398361844416 1828.6258544921875 0.0 0.0 1860.594482421875" Properties=species:S:1:pos:R:3 pbc="T T T"
Rb      86.81940223     132.19155439    2949.73157992
Dy      80.00141171     129.96071648    4147.30570960
Pr      76.80044736     100.12706460    2774.89064297
S       70.02906750      44.71465837    2848.86318133
Br      35.45873246     107.54014504    2478.17203383
Rb       2.31773273       5.88703819    1191.61910684
Na      85.81772047      81.86945817    4187.78376846
Rb      84.76156279     133.13557976    3155.45937563
Zn      60.54571996     102.57618968    2736.10585737
Rb     111.20470910     154.90572725    4377.25213193
Sr      25.40763042      91.15920752    1720.81548099
Sb      49.70958094     139.96023786    3004.61607204
Rb      66.15708343     160.63148585    3519.09989800
Cr      50.72729440     169.04061158    3541.65830359
S       34.65673510      83.69960047    2541.31002976
Al      23.60754517      68.07104908    2545.96778618
Mn      84.51280664      60.92576900    3456.00287597
Si      82.76239707     157.64382425    3399.42966467
12
Lattice="6.254817485809326 0.0 -2.1079258918762207 -3.375941146007933 5.273181238458426 1.0109037160873413 0.0 0.0 6.570773601531982" Properties=species:S:1:pos:R:3 pbc="T T T"
Se      -0.29623153       3.77309946       5.15153305
Te       3.17300019       2.20595072      -1.03641469
Pd       2.81790697       0.72774504       1.86289075
O       -1.14148092       2.12183361       1.28789381
Te      -0.20581353       0.61817114       0.15777279
F        4.25848366       1.57009944       2.91543916
O        0.61041497       2.31914036       5.45948909
O        0.67067482       4.90022877       6.07230530
O        3.14986067       3.92052064       4.87347370
O        0.05838457       4.17362034       3.56473435
O        2.65211840       2.38392294       0.75301784
O        0.98150094       0.14515969       1.53449069
19
Lattice="8.013443946838379 0.0 -1.5422437191009521 -3.7575368464957823 7.469501888987267 -3.844249963760376 0.0 0.0 9.115360260009766" Properties=species:S:1:pos:R:3 pbc="T T T"
Cd       1.21584121       1.29630730      -0.28020445
Dy       4.16142636       4.31439188       3.51272434
Hg       3.35130010       7.11846876      -4.23319147
Tl       4.18336086       2.01268117       6.49575990
Cd       2.57346510       1.08376950       2.34062531
Hg      -0.65110409       2.59366332       7.03221487
Hg      -2.38383718       5.23958309      -1.32857662
Cd       2.64369099       7.17292192       1.08063071
Hg       1.30427825       5.20911066       2.71611217
Cd       0.22898467       0.19908182       4.10821876
Hg      -2.45340335       6.38220405       2.91038632
Hg       5.57868207       1.61043940       2.60813035
Cd      -0.43555133       6.62263592       0.68512559
Hg       1.72359379       2.86401867       4.77327920
Hg       4.10099790       0.12062032      -0.13449453
Tl       1.65162326       5.28136003      -1.76401778
Tl      -1.24778628       3.21919299       1.43147643
Hg       3.30742050       3.64772816       0.48953506
Hg      -0.82071887       4.64448333       4.79191168
12
Lattice="19.67326545715332 0.0 30.276670455932617 -0.7995335288250379 9.774510078668468 36.513832092285156 0.0 0.0 37.809444427490234" Properties=species:S:1:pos:R:3 pbc="T T T"
W       16.31940242       7.22433321      87.44208395
Cs       3.55119649       9.62004020      78.42710761
Cs       7.83778342       9.74798460      63.31913282
F        2.56615499       6.05630623      54.49397727
F       14.38503805       9.38838316      61.63653619
Mo      15.95059789       3.62039737      48.51876888
W       11.95248508       3.04993035      43.82593457
Rb       6.84967650       4.31597033      35.37619094
F        9.10550877       3.58060362      46.50110268
F       17.68846726       1.84023233      52.22784015
F       12.77133776       5.66948951      78.27023948
F       14.51499700       7.79174446      76.30551478
15
Lattice="6.83036470413208 0.0 1.247732400894165 2.978274084528153 6.844303679788353 1.686880350112915 0.0 0.0 10.686619758605957" Properties=species:S:1:pos:R:3 pbc="T T T"
Tl       6.62429406       6.56091187       5.08944501
Tl       3.78001163       5.08761257       6.23572236
Tl       3.15501570       1.19980910       6.43573209
Tl       5.19622605       2.84671637       3.92269775
Tl       7.69855406       5.28473104      10.44323550
Tl       5.50882845       2.85685235       9.06748687
Tl       1.76386584       3.84180991       1.78835243
Tl       5.02332022       0.52880000      11.33271708
Tl       4.93801049       5.02852844      12.34227491
Br       3.98938758       5.64661654       9.37340257
Tl       0.47837627       0.43362595       1.78468268
Tl       1.96260266       1.73576376       9.41618892
Rh       6.58983463       2.78588028      12.00080956
Br       6.36948328       1.15791210       6.35219363
Br       7.66274074       4.51563124       7.25412938
8
Lattice="11.996542930603027 0.0 27.646053314208984 8.811046796198523 8.122378316143088 25.177242279052734 0.0 0.0 29.70455551147461" Properties=species:S:1:pos:R:3 pbc="T T T"
F        6.02040679       2.83434384      25.66523535
Cu      11.47544930       4.60594358      58.76719107
Br       1.38536712       0.89109269      15.45448918
I       11.45768117       7.59941224      33.94547835
Cs      10.02339802       2.25048758      43.68231536
In      16.96120274       6.68772392      54.03201455
F       13.16460817       3.10984297      36.45740996
Br       9.49882473       6.53792832      46.85041330
8
Lattice="5.596029758453369 0.0 0.020260965451598167 0.03090066887763599 6.977201700153021 -1.1260052919387817 0.0 0.0 6.675784111022949" Properties=species:S:1:pos:R:3 pbc="T T T"
Ho       1.33402052       2.95717070       5.98220754
Ho       1.33832424       4.01958705       2.68755485
Ho       4.12281933       1.09319339       4.88326712
Ho       1.32229029       0.55689612       3.27705401
Nd       1.34517519       6.44666464       5.50801061
Ho       4.13904250       4.58864690       4.40728191
Ho       4.14650758       5.66290213       1.10395927
Nd       4.13380126       2.15251366       1.53938413
20
Lattice="17.256298065185547 0.0 121.54398345947266 14.907603442382877 5.758179689682302 123.48574829101562 0.0 0.0 125.84149932861328" Properties=species:S:1:pos:R:3 pbc="T T T"
Au      10.77782521       2.00736991      94.46348380
Au      10.42925591       2.96644028      95.28099829
Rb      20.48533291       4.93570791     210.60244453
Rb      22.06616413       4.74830195     289.82672402
Rb       8.71161934       1.32467377     187.71690858
Rb      13.51875558       3.89615346     207.04255695
Cs      15.13957625       1.63696365     156.15092038
La      23.74624098       3.36261661     275.63376167
Br      14.48216672       3.97506323     126.90323103
Rb      18.80817531       3.30673275     229.08985050
Rb      17.17608559       5.08522543     222.60357205
Br       8.36504612       2.14687690     174.69706563
Rb      19.41275686       5.73528421     228.30117601
K       21.93864558       5.04146321     278.83348983
Rb      15.50286624       2.70492903     138.05639304
Rb      22.84518842       3.13069678     203.17132361
Rb      16.29218111       0.15304697     194.23604392
Er      17.36013385       1.12139380     232.12898263
Rb      12.67919917       0.35300955     128.09991470
Rb      14.45760152       4.65507706     162.10838634
6
Lattice="3.330991268157959 0.0 -1.1089602708816528 -0.0016384539980452961 3.5167115686200745 -0.0008796872571110725 0.0 0.0 5.549638271331787" Properties=species:S:1:pos:R:3 pbc="T T T"
Ni       1.25485813       2.54170185      -0.23085060
Co       2.92172016       0.78464917      -0.78592698
Ni       0.70862595       0.78509753       3.67744079
Ni       2.36763711       2.54043914       3.10563743
Ni       1.80394959       0.78301503       1.40884971
Ni       0.13964437       2.54103486       1.98259591
8
Lattice="2.681558847427368 0.0 0.0005551438662223518 7.767251794832602e-05 4.450925826348641 -0.819165050983429 0.0 0.0 8.7727632522583" Properties=species:S:1:pos:R:3 pbc="T T T"
Ir       0.65019519       0.67679320       2.89450223
Rh       1.99128702       1.81552325       4.86559897
Rh       1.99054746       0.68845832       7.27265889
Rh       0.64891568       1.82828093       0.54553040
Ni       0.64982277       4.02176813       4.43912635
Co       1.99042346       2.94317362       2.50674042
Ni       1.99068270       4.03258186       0.13810833
Rh       0.64927109       2.94443298       6.90520242
4
Lattice="0.2994697391986847 0.0 193.94676208496094 -5.289913571840998 10.478888587376733 229.6282958984375 0.0 0.0 203.52084350585938" Properties=species:S:1:pos:R:3 pbc="T T T"
Sb      -2.97095997       6.40105258     333.16096524
Rb      -2.83103079       6.08797725     365.97798179
Nd      -3.35138939       7.03378830     452.54319340
Rb      -2.20340900       4.69892436     385.08272665
16
Lattice="7.193182945251465 0.0 4.085653781890869 -2.3207446609915365 6.692863245494724 4.091598033905029 0.0 0.0 8.184700965881348" Properties=species:S:1:pos:R:3 pbc="T T T"
Se       3.93293080       2.94209007      12.31408740
Ca       6.32001766       1.25471658       8.24946379
Se      -0.80953053       6.25821690       8.22454683
Se       0.35907454       2.93395857      10.30036224
Tb       1.56138575       4.60052768      12.34536779
Se      -0.80920237       6.25929400      12.37335949
Se       3.93373903       2.94387666       8.27963090
Li       5.15792369       4.60065055      10.29532500
Tb       2.72364211       1.25385092       6.20451288
Se       2.76482398       6.26816651      14.38937936
Ca       6.31916023       1.25496123      12.34164746
Tb       1.56258969       4.60046704       8.25205076
Se       0.33331728       2.96099895       6.20856017
Se       2.79127063       6.24067893      10.29523900
Tb       2.72230417       1.25558764      10.29845996
Ca       5.15811529       4.60068406      14.38786336
3
Lattice="3.503819465637207 0.0 -0.004235509317368269 -1.7580533461294157 3.0305566245308877 0.0031803168822079897 0.0 0.0 7.025950908660889" Properties=species:S:1:pos:R:3 pbc="T T T"
Pb      -1.05814914       2.61556466       5.04462976
Zn       2.44907451       0.59076068       2.73071676
Hg       0.69537092       1.60054212       0.73417135
3
Lattice="3.407447576522827 0.0 -0.020266490057110786 -0.042382708350010546 4.237365961697542 -2.477398157119751 0.0 0.0 4.906290054321289" Properties=species:S:1:pos:R:3 pbc="T T T"
Dy       3.24910347       3.72649653       1.07252993
Tl       1.55794396       2.31413576       3.54256854
Li       1.57398602       0.90266761       1.09627071
8
Lattice="18.642803192138672 0.0 219.48318481445312 -3.670471735784986 3.6874111692173948 230.31900024414062 0.0 0.0 230.51980590820312" Properties=species:S:1:pos:R:3 pbc="T T T"
Rb      13.47930562       0.30336363     374.94634852
Rb       2.45861294       1.93167131     251.36000343
Rb      -0.07479727       0.08340527     231.35630577
Rb       4.85358959       2.80140099     435.20741895
Rb      13.80574201       3.40501278     520.15521785
Pb      16.90573982       1.61353218     448.31066012
N        2.02605903       1.32378994     217.53902463
Rb       0.09896198       2.85181768     222.84158570
4
Lattice="4.971652507781982 0.0 0.015217151492834091 0.015192604950382344 4.970762400594519 0.015113761648535728 0.0 0.0 4.971098899841309" Properties=species:S:1:pos:R:3 pbc="T T T"
Tm       1.76422455       3.80483631       1.11874624
Er       4.24269780       1.31805044       1.11744500
Er       4.24878386       3.80426449       3.61194051
Er       1.75685459       1.31982175       3.59684766
4
Lattice="4.725310802459717 0.0 1.1186929941177368 1.18259252790088 4.5776080603711415 1.1211788654327393 0.0 0.0 6.456039905548096" Properties=species:S:1:pos:R:3 pbc="T T T"
Na       2.89599390       1.08621118       2.63345334
Te       1.45175430       3.62820849       4.01636446
Te       0.83835149       3.15328661       1.22738234
Tl       3.67093388       1.68608198       5.96586998
6
Lattice="4.736157417297363 0.0 -2.3564224243164062 -2.9292879221513886 4.427427083236743 0.004456315655261278 0.0 0.0 5.308106899261475" Properties=species:S:1:pos:R:3 pbc="T T T"
Nd      -2.14800359       3.24768140       3.07210881
Nd       0.96594161       2.13950977       3.23000498
Ni      -0.59247767       2.69340749       0.49740647
Ni       3.24151760       0.48021640      -0.68467326
Ir       0.87194410       0.47961356       0.49344919
Ir       3.24015240       0.47875933       1.96967473
10
Lattice="4.569896221160889 0.0 -2.349430799484253 0.5606524778638892 5.205073714575009 -1.3797565698623657 0.0 0.0 5.403825759887695" Properties=species:S:1:pos:R:3 pbc="T T T"
F        2.82292863       2.83456561       3.04193951
F        3.09046367       5.02196309      -0.81095333
Cr       4.15826820       3.43260062      -1.07042108
F        4.41150479       1.28185110       1.89366419
F        4.98851645       4.11246906      -2.42958175
F        0.58725671       3.99784412       2.57958214
F        3.02465784       2.45075927       0.14607978
Cr       2.64541706       1.38608038       1.75476531
F        2.14703999       0.36138184       3.06493870
F        0.82387449       1.86620091       1.31358125
8
Lattice="4.413783073425293 0.0 0.011945336125791073 0.00941914451105511 5.592156583890304 0.014878482557833195 0.0 0.0 7.236785888671875" Properties=species:S:1:pos:R:3 pbc="T T T"
Yb       1.57606409       2.78824647       6.44302177
Yb       3.78629127       5.58308999       0.19195099
Yb       1.57913968       4.07177521       2.82692777
Yb       3.77870072       1.27696336       3.79849781
Pt       1.57365833       1.21593800       1.77009602
Pt       3.78266083       4.00716175       4.85299278
Pt       3.78357205       2.85581797       1.23722090
Pt       1.57189758       0.05499633       5.37836900
4
Lattice="3.315262794494629 0.0 0.007431793957948685 0.005280826114830113 3.3147965328300324 0.005419411230832338 0.0 0.0 6.495413303375244" Properties=species:S:1:pos:R:3 pbc="T T T"
Y        1.75298211       0.57736183       2.20565101
Sc       1.75293309       0.57698075       5.45462429
Ni       0.09766511       2.23475777       4.00329735
Ni       0.09758591       2.23439285       0.41120262
5
Lattice="3.4464786052703857 0.0 268.8866271972656 2.2173286269057244 13.219039586113702 208.3183135986328 0.0 0.0 268.4264831542969" Properties=species:S:1:pos:R:3 pbc="T T T"
K        3.06071479       4.04737994     339.75479500
Ag       2.88300499       9.92029149     446.28951419
Cs       3.66528188       8.40750034     426.25482634
Rb       0.79084098       1.38623241     116.11360192
Rb       3.19201438       9.11941647     328.76255748
6
Lattice="3.8756814002990723 0.0 -0.008567830547690392 -1.949280846245358 3.9860947443459613 -0.03883276507258415 0.0 0.0 4.685479164123535" Properties=species:S:1:pos:R:3 pbc="T T T"
Ni       1.76016972       1.42651221       1.20755025
Ni      -0.17512391       0.61674958       0.05599380
Os      -0.18176873       3.07874016       0.01921596
Os       1.75336533       3.76396685       2.35809295
Ni       1.75969517       1.42562755       3.55186301
Ni      -0.17971533       2.23770733       2.37021817
14
Lattice="3.612961530685425 0.0 0.33344969153404236 1.0124261522735976 5.6591533863518295 1.2933127880096436 0.0 0.0 12.227801322937012" Properties=species:S:1:pos:R:3 pbc="T T T"
Tb       1.94199510       4.30447974       2.70875358
Rh       2.52855655       1.13040479       7.09065462
Tb       3.72068853       4.73350025      11.90990756
Ge       1.90627086       4.79665075       8.91663782
Ge       0.91498388       1.01538972       5.20839343
C        2.00164544       3.14235482       7.76953048
Tb       3.82460864       3.96220032       6.40363870
Tb       2.93243504       1.11237252       3.07738284
Tb       3.66368337       2.28629940       9.42901755
H        3.39454876       2.99389376       1.41398431
Tb       1.38664708       1.73143932      12.28518473
C        2.03202343       5.27815091       5.00156977
C        1.84434913       3.51543249      10.68795044
C        2.94449022       0.11541919       0.77572448
13
Lattice="5.801673412322998 0.0 2.151078224182129 -0.05368145948027334 5.86374459025874 3.360903739929199 0.0 0.0 6.759906768798828" Properties=species:S:1:pos:R:3 pbc="T T T"
Ga       1.82512204       0.90544189       6.46152992
Be       4.85416872       4.79050441       7.79046419
Au       3.02526956       2.44738179       8.15058262
Au       0.80521114       0.87805491       2.23366039
Au       3.57135118       4.64019743       9.89476331
Au       4.73196578       3.35252039       5.80081931
Be       3.90992074       5.81499159       5.15973377
Au       5.33350412       0.92762952       6.97142177
Au       3.95087385       1.04552642       3.82360074
Au       2.32457800       4.61940739       6.37931420
Au       0.00911397       2.99101647       6.81616453
Au       0.92099012       4.50328843       8.94631850
Au       1.74494027       2.68338110       4.31883784
8
Lattice="4.944247245788574 0.0 1.4912132024765015 2.2445832500611975 4.405402709458137 1.4920659065246582 0.0 0.0 8.941118240356445" Properties=species:S:1:pos:R:3 pbc="T T T"
Ho       3.31747706       1.81156337       5.09336012
Ho       1.52734530       0.71415721       2.08825481
Cd       2.42154689       1.26184121       8.05966230
In       6.01755211       3.46552423       5.08259181
Ho       6.91958677       4.01885086      11.02900612
Ho       5.11412799       2.91292127       8.07578750
Au       0.60447445       0.14893889       5.14273459
Au       4.24143083       2.37704062       2.03179874
18
Lattice="35.30964279174805 0.0 1488.5648193359375 -54.741362556196684 135.63132286822665 1254.421630859375 0.0 0.0 1281.90087890625" Properties=species:S:1:pos:R:3 pbc="T T T"
Rb     -10.89570046      85.88184927    2903.33091740
Dy      27.64679041      15.04230795    2662.55020410
Bi      -8.74677026      47.49052205    1402.62423713
Dy     -10.61003628      28.71256998     630.86708782
Yb     -16.98014064      59.45938958    1550.59740267
Br      -3.84212475      51.25663777    1747.75987422
Li     -33.55878638      99.61616084    2233.72235160
Er      17.14091868      37.65514649    2338.20465133
Ir      14.18333323      31.30658567    1841.78407304
Rb     -16.96241707      62.83115121    2181.01612452
Rb      12.33346758      20.44580702    1280.69545070
Al     -16.68429765      59.39875361    1181.34206735
As     -32.43497823     125.28345797    2298.20008858
Ni      -4.12736324      39.90834205    1949.18598180
Ni      -8.59082208      71.53404770    2199.69206274
Re     -13.87481461      87.39763125    2118.41037226
Mg     -18.29144240      97.55892767    1807.51637236
Mo     -24.47809007     118.04157263    3119.17507755
7
Lattice="4.713858127593994 0.0 -0.35429686307907104 0.9641961936256177 4.243967120419715 -0.8289592862129211 0.0 0.0 5.246938705444336" Properties=species:S:1:pos:R:3 pbc="T T T"
O        1.26932159       0.24025771       5.10528219
O        3.50232796       0.04989111       1.65575670
O        0.90840562       1.47992883      -0.12870660
Sr       3.26125819       2.14448588       0.05063884
O        3.33777493       2.58643029       2.68615163
O        2.45605954       0.86436984       2.36111544
O        4.57050322       2.94473292       2.58847052
8
Lattice="5.0100297927856445 0.0 -0.0009707374265417457 0.0004407011119929565 5.763427240688712 -3.2955093383789062 0.0 0.0 6.640090465545654" Properties=species:S:1:pos:R:3 pbc="T T T"
Tb       2.59536953       1.05791168       4.45149915
Cd       2.59406236       1.10735621       1.13144758
Cd       0.08966772       2.04644190      -0.48866247
Tb       0.09181614       4.90622389      -2.17716924
Cd       0.08885031       4.85722388       1.14263195
Cd       2.59315885       3.91680592       2.76161728
Cd       2.59412632       3.92371390      -0.48720341
Cd       0.08896972       2.03884342       2.76265957
4
Lattice="3.933460235595703 0.0 -0.002091957489028573 -0.0061951099957525775 3.933719286708721 -0.0014262078329920769 0.0 0.0 3.8746097087860107" Properties=species:S:1:pos:R:3 pbc="T T T"
W        0.14034410       3.40237742       0.24748045
W        2.10983448       1.43559304       0.24656318
Ru       0.14326282       1.43537147       2.18513084
Os       2.10715830       3.40181727       2.18341172
9
Lattice="5.363887310028076 0.0 1.588131070137024 1.3748041484589841 5.883753112195675 1.3612060546875 0.0 0.0 7.016777515411377" Properties=species:S:1:pos:R:3 pbc="T T T"
Cd       4.99078184       5.00827370       8.32584297
Cd       2.39606592       1.83638839       5.98072541
Hg       5.42113793       2.44043185       5.75140248
Mg       3.66609699       3.49683425       3.64404029
Hg       2.11020545       0.74524663       2.21076490
Hg       4.93980045       1.67864784       8.64036678
Cd       6.02051450       5.60284425       5.52952502
Hg       2.86277729       4.93486960       6.16725435
Hg       1.56661140       3.81788377       1.65365027
8
Lattice="3.853132724761963 0.0 0.003511404385790229 -1.9165969677207506 5.942303934057646 0.01563701219856739 0.0 0.0 8.845766067504883" Properties=species:S:1:pos:R:3 pbc="T T T"
Tb       1.16725310       3.46418152       4.01589038
Tb       1.16275012       1.74302900       8.43914593
Sc      -0.75879491       4.35867146       1.24168885
Tb       3.08954838       0.94625580       2.40612774
Tb      -0.75726337       4.26145475       6.82154926
Ir       1.17065748       5.55661912       8.52675153
Sc       3.09011130       0.86234844       5.66822280
Ir      -0.75567693       5.59700056       4.10006546
13
Lattice="5.119861125946045 0.0 2.388791799545288 0.5928572922059523 6.5956579447116885 0.6969982981681824 0.0 0.0 7.047023773193359" Properties=species:S:1:pos:R:3 pbc="T T T"
Al       4.20859624       2.30226266       7.35931792
Au       0.44494327       1.00671189       2.95236268
Al       0.61068885       4.78040348       4.58234726
Al       2.27147281       1.42844546       5.25207099
Au       0.39368702       3.53700606       6.92338150
Au       2.41639073       3.39454098       2.09165214
Al       4.01136616       1.44124023       3.09604348
Al       0.73783703       5.49020696       1.90879055
Al       2.72489620       4.78768860       6.75816328
Au       0.16289057       0.05978258       5.84703474
Au       3.10278275       5.85812333       4.15415203
Au       4.11840640       3.41399196       5.01223063
Au       2.49199338       0.29852138       7.66543604
16
Lattice="170.27084350585938 0.0 1483.84521484375 -54.16086718548786 56.28865524091594 1784.8135986328125 0.0 0.0 1714.4273681640625" Properties=species:S:1:pos:R:3 pbc="T T T"
Ca     137.98243274       6.55938878    2692.98469889
Au     116.53783774      49.19610759    3431.60767150
Cu      19.24376508       5.05377932     777.18889798
Re      87.98226324      47.34001501    3252.38961755
Ga      93.39805462      33.46769902    3351.19611800
Zr     -24.19339748      38.68718417    1474.60959989
N       51.89961264       3.97422918     995.91723289
Gd     141.71461704       1.99810516    1367.58866197
Rb      40.85184689      29.20333721    2208.45783359
Cl      26.14094740      42.21236470    3194.07447629
Rb      92.29081979      17.15918456    2791.67070724
Li      37.73910603      53.32566958    3145.33397492
Sn      66.88331956      46.64212116    3898.40524406
Zn     102.01488268       7.95782235    1430.69711000
Hf      90.16415236      14.41348299    1491.00026334
Rb     112.01356093      27.90778210    3081.02595728
12
Lattice="4.652531623840332 0.0 0.003957601264119148 0.003867764790258234 6.878728256032836 0.02886088751256466 0.0 0.0 10.21105670928955" Properties=species:S:1:pos:R:3 pbc="T T T"
Pb       1.31688048       6.74217801       8.24148419
Cd       3.64026687       4.98452628       9.99528679
Mg       1.31471632       6.70490248       1.47841814
Mg       3.63676994       1.51635301       6.46532568
Pb       3.63909062       1.54568481      10.15986717
Pb       1.31381487       3.27392233       8.25352186
Mg       1.31285624       3.26339896       1.41523283
Cd       1.31612265       6.75534776       4.75121303
Pb       3.64244290       5.03080509       6.43720571
Cd       3.63938449       1.42716993       3.17972292
Pb       1.31411745       3.13318061       4.71728606
Pb       3.64124080       4.97960377       2.95195552
10
Lattice="25.269550323486328 0.0 113.41295623779297 0.8365569040397529 4.504396740401903 126.07672882080078 0.0 0.0 126.31340026855469" Properties=species:S:1:pos:R:3 pbc="T T T"
Br      19.67998272       0.08201296     134.91014775
Au      13.81595078       3.25785314     194.22283708
Cs      17.09983826       0.72263768     125.37544277
I       14.53956289       0.49503185     131.90733350
Co       5.37670394       0.30370817      38.59931689
Yb       0.78328304       2.76055315     121.59995604
Rb      13.09156374       2.46384430     166.15779029
Rb      12.54722863       4.41237608     232.01244339
Rb      14.82679323       2.59072586     218.56006209
I       21.22593804       1.42569825     257.84825745
4
Lattice="2.982752799987793 0.0 -0.014000874944031239 -0.03245222491520495 4.850176486573369 -1.774021863937378 0.0 0.0 5.1642327308654785" Properties=species:S:1:pos:R:3 pbc="T T T"
Au       0.31333024       4.75788498       1.85847637
Ag       1.80517233       4.75994997      -0.73238753
Ag       1.82177614       2.33500844       2.73668641
Hg       0.33034293       2.33687945       0.16093036
8
Lattice="4.354541778564453 0.0 -0.7103351950645447 -0.23017094231436674 4.930518212667341 -1.274862289428711 0.0 0.0 4.444890975952148" Properties=species:S:1:pos:R:3 pbc="T T T"
Cu       1.80299058       4.53357297       0.85038320
Ni       2.97684346       1.48030387      -0.76902435
Ni       0.74727745       2.78995675      -0.78167301
Ni       1.94566280       2.06978459       1.50743096
Ni       4.16984549       0.76396760       1.51869734
Ge       0.88783449       0.43926529      -0.03203326
Ge       4.03210998       3.11328255       0.77261212
Cu       2.88650272       3.94469176      -1.37948655
8
Lattice="5.18909215927124 0.0 0.001596348942257464 0.001716490793954567 5.191822245090899 0.0004825255600735545 0.0 0.0 10.358221054077148" Properties=species:S:1:pos:R:3 pbc="T T T"
Pr       2.99277124       4.81746905       8.49489241
Pr       2.98945944       4.81692038       3.21851993
Pr       0.39492344       2.22082637       8.49358482
La       2.98885334       2.22120375       5.86031873
Pr       0.39304710       2.22150934       3.22324951
Li       2.98894104       2.22171714       0.67938811
Pr       0.39656441       4.81736290       5.86089581
Pr       0.39911451       4.81646610       0.68000603
4
Lattice="4.315557479858398 0.0 -1.2210328578948975 -1.7421338701233113 3.3829979659632015 -1.7014516592025757 0.0 0.0 4.065736770629883" Properties=species:S:1:pos:R:3 pbc="T T T"
Zn      -0.86801585       2.74867274      -1.04596712
Sc       0.00241354       1.07886977       1.83416884
Au       2.20424885       1.00484725      -0.85054565
Hg       1.32662466       2.69316644       0.32853703
6
Lattice="51.866641998291016 0.0 887.7669067382812 12.797848185220573 33.933420747833736 923.3533935546875 0.0 0.0 925.7940063476562" Properties=species:S:1:pos:R:3 pbc="T T T"
Mo       9.58059072       1.35409674     709.81901391
Hg      59.64565507      33.57731353    1739.70827738
Rb      26.75751098      13.93626454     778.74619960
Si      20.68325844       2.34808532     931.45855315
Rb      21.24022631      16.91165245     774.98997933
Fe      35.47393825       4.76048848    1546.62161503
4
Lattice="4.915977478027344 0.0 1.6705693006515503 2.179686665693367 4.407886576377321 1.6706466674804688 0.0 0.0 8.135055541992188" Properties=species:S:1:pos:R:3 pbc="T T T"
Pb       5.69211832       3.70661154       7.46108695
Cs       0.17520283       0.27898470       7.56108791
K        1.52596053       1.11727951       3.56341246
Au       3.33252261       2.24192335       6.33113477
10
Lattice="103.39794921875 0.0 1218.4827880859375 -81.8603974965954 14.659920668891278 1103.60986328125 0.0 0.0 1100.86181640625" Properties=species:S:1:pos:R:3 pbc="T T T"
Ta     -11.72565891      10.93305104    2042.92289787
Rb     -52.39617943      10.27986941    1654.74717267
In      -5.98136872       2.21018418    1240.09303879
Sr      44.73609782       4.95386743    2218.00982896
Cs      38.42949392       2.94096312    1101.06727194
Rb       3.57187037       2.70690810     450.65092739
Au      87.95255944       1.34835193    1942.12298276
Rb      70.16486892       4.08682953    1726.09661196
Rb      63.28859000       0.88649059    1666.35315966
H      -46.93425511       8.66212514    1123.87060279
12
Lattice="7.258057117462158 0.0 2.271068811416626 1.2501121627766947 6.672051330401311 1.0861992835998535 0.0 0.0 10.696722030639648" Properties=species:S:1:pos:R:3 pbc="T T T"
Bi       1.01299842       4.16030351       8.95106884
K        3.19268612       5.71257005       6.27112734
K        6.21327359       6.26191137       9.32562411
K        5.94706774       6.46241712      13.11599819
K        1.17673077       0.58647494       9.03365265
Bi       6.69121108       6.45504602       5.92212750
K        6.75037016       3.12717967       3.73896762
K        7.48833499       2.95703401       7.64019895
Bi       2.30300765       6.62115478       2.91610946
K        3.08614498       3.11330980       2.31776246
Tl       4.01254615       3.03664642       9.25011487
Sb       3.99238324       2.20929268       6.06084703
3
Lattice="34.62523651123047 0.0 364.86126708984375 19.642066813959783 41.0093666913445 364.1630554199219 0.0 0.0 361.83087158203125" Properties=species:S:1:pos:R:3 pbc="T T T"
Fe      29.29966969      18.86090404     503.17644203
Ti      31.19499704      38.71188665     633.66473012
Nd      19.64175466       8.68651204     490.86215546
16
Lattice="31.52049446105957 0.0 310.98822021484375 10.587224222108487 5.53776119912269 290.8943176269531 0.0 0.0 320.4437561035156" Properties=species:S:1:pos:R:3 pbc="T T T"
Rb      14.00135638       1.58208024     228.51628032
Rh      33.45501726       3.33148837     545.53210655
Rb      26.12741708       0.15846146     543.28723057
Br      16.19117716       5.33506003     540.23610277
Rb       3.84378982       0.78561870     303.50293039
Cd      25.18689540       0.78955214     467.96659695
Rb      14.62944476       1.99783147     278.78834807
Rb      10.22726097       3.86386743     517.22951489
W       16.00970439       2.36625585     492.76365343
Rb      10.02373474       1.71801259     160.58442582
W       17.13995799       1.06118446     264.81675594
Rb      37.59367377       3.31916200     595.43708734
Na      29.97585874       0.26432181     506.87732792
Rb      11.81462495       3.43286965     420.87191505
Rb      13.45646621       2.50590766     459.84507997
Na      33.51069802       3.88718402     570.21321359
18
Lattice="23.974910736083984 0.0 707.1500244140625 11.066798599101729 21.00660790425678 728.6124267578125 0.0 0.0 790.6687622070312" Properties=species:S:1:pos:R:3 pbc="T T T"
La      32.06494768      20.82407552    1933.78734224
Rb       6.52243098       3.73951684     797.09510751
Pb      11.06142665       4.27730794    1044.96311206
P        7.89238545       8.61850635     736.85692770
Ni       9.33226400       3.97687800     446.30587013
Rb      22.01090611      16.28654761     968.44856803
Cs      12.22392164      20.96959233     957.60607972
Al      20.36924612      17.84098027    1637.24520334
Rb      12.28517600      19.94882731    1154.32809234
Rb      24.36041216       6.27512150    1254.58504942
Rb      19.89664752      12.01774481    1436.96942996
As      14.64343373      11.37966651    1352.12630261
Rb      33.22276682      18.57563488    1433.77284237
Hg      24.98719849      16.51177381    1468.45832369
Cs       9.42549118       6.59531884     477.89911783
Hg      15.30307379      19.43984840    1474.24413054
Rb      28.39020675      10.45530127    1697.91274884
Rb      26.86392970      11.66633159    1320.97416613
5
Lattice="3.877497434616089 0.0 -1.392476201057434 -0.5010631308877297 3.8447002605580543 -1.39138925075531 0.0 0.0 6.111922264099121" Properties=species:S:1:pos:R:3 pbc="T T T"
Tm       2.34874951       1.29120683       3.40906585
Ge       1.25408030       2.25371769       0.35301145
Rh      -0.25612558       2.74055561       2.24301690
Ge       3.44405004       0.32983953       0.35211173
Rh       0.57555904       3.68789365      -1.53832421
4
Lattice="3.8614652156829834 0.0 1.1370922327041626 1.7541033558104293 3.440210423188431 1.1362820863723755 0.0 0.0 7.046609401702881" Properties=species:S:1:pos:R:3 pbc="T T T"
P        1.30875693       0.07074762       5.74410937
La       2.69162965       0.91822047       1.09728976
Er       1.60790906       2.61980903       4.71578922
S        4.04005461       1.74446197       3.60676947
4
Lattice="4.114709377288818 0.0 -1.5183448791503906 -0.7555627768331734 4.639704267315079 -2.0649445056915283 0.0 0.0 6.302692890167236" Properties=species:S:1:pos:R:3 pbc="T T T"
Ca       2.38983336       2.24889146       1.65685382
Tl       0.76224239       0.00161473       3.59439823
Tl       1.20715687       3.46580949      -1.52525660
Tl       3.61464315       1.09518184      -1.33747534
20
Lattice="6.942777633666992 0.0 0.18808548152446747 -0.04039645659130624 8.13859832329221 -0.0025646169669926167 0.0 0.0 9.31833267211914" Properties=species:S:1:pos:R:3 pbc="T T T"
Dy       0.13628796       7.19066538       0.16717794
Dy       3.47857726       7.81079172       8.68789209
Hg       3.99127997       2.31152693       6.73554690
Dy       4.24049604       5.17965270       1.57465454
Ru       5.75496096       8.13492467       7.17438087
Dy       3.62501528       7.84719592       4.95221122
Ru       4.81001162       5.44536818       4.09576086
Dy       5.85161481       2.34766918       9.31664429
Dy       0.75470199       1.63042678       6.12900780
Dy       5.54308485       2.85009976       3.96525745
Dy       0.02265632       7.12903365       3.88017627
Ru       1.43451710       1.44697802       8.64160225
Dy       5.40024605       5.24119081       6.83726825
Dy       1.96573365       1.61469419       2.08290346
Dy       2.04437517       4.08278101       8.48939605
Dy       2.32554264       4.48388791       4.58076389
Ru       2.33259570       6.88864951       2.35646862
Hg       4.93032532       0.36485447       2.16045417
Hg       0.56506192       4.53578517       1.93238222
Hg       1.39215143       6.54428214       6.68378876
12
Lattice="3.9030325412750244 0.0 -0.0005668788799084723 -0.0021029592851634048 8.627490741015269 -4.172150611877441 0.0 0.0 10.738966941833496" Properties=species:S:1:pos:R:3 pbc="T T T"
Ho       2.75947128       3.08377425      -0.37707456
Y        0.80776050       0.32084424      -0.02560511
Te       2.75849361       6.50199432       6.48110371
Ho       2.75767498       8.41739294      -1.48717037
Ho       0.80881147       0.48631315       5.22942757
Ho       0.80607259       5.82205169       4.11820667
Tb       2.75825144       3.36005764       5.71584688
Ho       2.75884263       6.08372762       1.15954508
Ho       0.80658584       2.82262079       2.57730076
Te       0.80683733       2.40550058       7.99677040
Tb       0.80651450       5.54331950      -1.97901555
Y        2.75875016       8.58949726       3.76127479
12
Lattice="6.061802864074707 0.0 -0.5288450717926025 -3.0882590257702693 5.215810781468868 -0.5252864360809326 0.0 0.0 11.61648178100586" Properties=species:S:1:pos:R:3 pbc="T T T"
Tb       0.43355164       2.85283114       8.69976937
Tb       2.01534374       1.98665474       2.90885542
Tb      -1.07180102       3.70321186       2.90862092
Tb      -2.57612912       4.57034440       8.69811898
Tb       5.02570577       0.27178497       2.90860964
Ho       1.24462541       0.67932729       6.06650571
Tm      -0.27847698       1.54891839       0.25667156
Tb       3.52353760       1.13441919       8.69936352
Ho       1.20295575       4.16010939       5.54052097
Tm       2.72818975       3.28942435      -0.27186648
In       4.25525359       2.41940726       5.53645222
Tm      -0.31957267       5.02737032      -0.27096030
12
Lattice="529.046630859375 0.0 2161.9091796875 526.2957595177867 235.89750594223355 1967.975830078125 0.0 0.0 1877.7406005859375" Properties=species:S:1:pos:R:3 pbc="T T T"
Rb     896.85694865     181.25807875    4147.11033868
N      290.32867214      96.51753589    2379.48327789
Rb     448.95134903      46.81746990    2940.48266674
Rb     166.28248698      23.58904440     683.58552236
Hg     356.43685841     109.66985823    3178.10256682
Ir     849.76981829     158.39203500    3813.59266755
Dy     714.75498992     159.50616780    3731.88593923
P      834.50731331     142.59488109    4959.41322755
Rb     606.71096073     136.73330357    3548.51950072
Tb     587.85834517     108.55582386    3447.45136112
Ga     511.84600396       5.26677954    3722.95858979
Rb     439.50481164     160.68066270    2446.45962745
6
Lattice="4.1345438957214355 0.0 0.014977402053773403 -2.0477455291331244 4.180445525348759 -1.1075342893600464 0.0 0.0 5.622032642364502" Properties=species:S:1:pos:R:3 pbc="T T T"
Li       2.42777424       0.27040478       3.15645324
Li       2.44183788       3.18756524       0.62315784
Li       2.43878783       2.96404473       3.22629450
Li       0.36710179       1.72791683       4.69576085
Pd       0.36675441       1.72925689       1.88088398
Li       2.43076964       0.49613126       0.55443130
20
Lattice="6.30349063873291 0.0 -2.6096019744873047 -1.9902595072166356 6.7010653620635985 -3.4434449672698975 0.0 0.0 7.511383056640625" Properties=species:S:1:pos:R:3 pbc="T T T"
O        4.13062408       4.35398283       2.25949027
Cd       4.44417762       4.35471096      -2.98294156
O        4.98838629       1.45890843       3.02172067
Ba       0.45252627       4.04495933       4.73953295
Cd       1.20985709       4.80115106       1.56332726
O        3.92324090       6.42583554      -2.57386391
O        4.06163824       0.06186594      -1.39216644
O       -0.50722993       6.30087388       3.27300166
Ba       0.04731860       0.94061494       1.11720251
O        1.83103274       1.14443952       4.72440761
O        3.36030994       1.78412340       0.93919929
Ir       0.12238927       0.05741166       5.23699481
O        1.93758629       3.11219698      -0.77374708
O        4.82269822       3.56449949      -0.92491667
Ir       2.67658908       1.27036975      -0.95144900
Ir       2.85238646       1.39484273       2.86046263
O        3.16102490       5.62137814      -0.02879209
O        1.33878812       2.63823103       2.60098622
O        0.22033303       6.28067229      -1.13019768
Ir       3.38893414       3.77002667       0.46115669
8
Lattice="4.090619087219238 0.0 0.0012047792552039027 0.0009865306344078635 6.873704362646534 -2.3003594875335693 0.0 0.0 7.274394512176514" Properties=species:S:1:pos:R:3 pbc="T T T"
Pr       1.28765985       1.03735531       6.43148575
Se       3.33383690       2.86528830       0.47846781
Se       1.28941542       6.13601260      -0.67170248
Sm       3.33387402       4.47450269       5.28023537
Sm       3.33291373       1.03685711       2.79198086
Se       3.33323503       6.08542431       2.80756921
Tm       1.28858973       4.47464813       1.64352328
Se       1.28771813       2.80930461       3.95995025
4
Lattice="4.9800004959106445 0.0 2.946110725402832 1.682356851592345 4.688937575820389 2.946498155593872 0.0 0.0 5.790324687957764" Properties=species:S:1:pos:R:3 pbc="T T T"
Eu       2.83931668       3.56157102       7.12609718
Y        4.49339281       1.21784998       4.23983609
Pb       1.17578125       2.39643268       4.21314633
Au       2.83213656       0.05222891       7.11122172
8
Lattice="4.921866416931152 0.0 -1.1955567598342896 -0.3009213954069602 4.938538067622558 -1.2106581926345825 0.0 0.0 10.758480072021484" Properties=species:S:1:pos:R:3 pbc="T T T"
Tb       2.00610636       4.81855760      -0.39829426
Tb       3.48697708       1.13845620       5.70215386
Pr       4.62117061       2.35400848      -0.36886352
Tb       2.74647879       2.97850326       2.65111945
Pr       0.43544632       0.50964714       3.85562726
Tm       3.90191333       4.21580085       7.43620703
Pr       0.86975116       3.60432928       5.66890149
Tm       1.58918209       1.74246038       8.62283107
12
Lattice="4.42549991607666 0.0 1.0593754053115845 1.4481648616821727 8.87733694704732 3.727902412414551 0.0 0.0 9.745864868164062" Properties=species:S:1:pos:R:3 pbc="T T T"
Sr       5.32874882       5.88826861       5.40766330
Sr       2.57596760       1.04492277       7.11407302
Sb       1.00593745       1.17992599       3.89961824
Sb       4.55709994       3.51984127       8.62409896
Sr       1.71033937       3.42431178      10.70693668
Sb       3.70889823       6.00424238      12.14163787
Sb       4.16612015       0.89190504      10.24067869
Sb       3.30553371       3.45650250       4.08219605
Sn       2.52724004       5.22646550       7.32785935
Sn       3.06895409       8.49883190       5.07914345
Sb       4.65410053       7.87790782       8.21478813
Sn       1.91968476       7.09034467       9.83369593
4
Lattice="4.07075309753418 0.0 -1.6712415218353271 -0.8563270879053988 4.380912317989684 -2.083838701248169 0.0 0.0 5.846035480499268" Properties=species:S:1:pos:R:3 pbc="T T T"
Hg       3.44625641       1.38563402       3.14941187
Ca       2.23744521       2.51365663       0.18002607
In       1.03269087       3.64928170       3.07327885
Hg       0.62348727       0.31243536       2.04080653
4
Lattice="2.9476420879364014 0.0 0.9407011270523071 1.3231098708207796 2.6362871203646274 0.9395376443862915 0.0 0.0 5.105442047119141" Properties=species:S:1:pos:R:3 pbc="T T T"
Cr       2.32978810       0.74823613       4.35277050
N        1.22884873       0.06822217       2.72024712
N        3.43282494       1.43009326       5.98965055
Nb       1.51779466       2.06693767       1.80345721
8
Lattice="5.091215133666992 0.0 1.5752441883087158 2.302057805445997 4.541760731411482 1.5754402875900269 0.0 0.0 9.044629096984863" Properties=species:S:1:pos:R:3 pbc="T T T"
Nd       5.07273095       3.79335198       2.87970261
Nd       1.50007890       1.59931550       5.41919592
Nd       4.65372352       0.40875273       4.23579229
Cd       2.42054067       2.16396966       2.42516047
Cd       6.03427798       4.38416418       8.80516728
Hg       0.53087410       1.00345266       8.56090375
Co       4.22721174       3.27380582       5.61518870
Nd       3.38385026       2.75583601       8.34640347
12
Lattice="5.094605445861816 0.0 -1.604540228843689 -0.6000589622347231 5.472037717796205 -1.9202054738998413 0.0 0.0 8.986867904663086" Properties=species:S:1:pos:R:3 pbc="T T T"
Zn       4.81219976       2.22718967       6.34534604
Be       4.56790858       4.46561061       5.57284404
Sr       1.82364900       1.08805505       1.22919960
Sr       0.16245484       2.43761742       4.88769103
Sr       4.12995096       4.18342612      -0.33056401
Zn       2.26319784       2.22825490       7.14317637
N        1.05820937       3.94864881      -1.22890914
Be       2.02296227       4.45309133       6.37760825
Pt       4.08612868       0.95973232      -0.47966816
Sr       2.52449881       4.99922282       3.52076430
Pt       0.82005244       0.06569613       7.00249111
N        3.15801772       3.39423321       5.53193899
9
Lattice="29.135122299194336 0.0 487.3301086425781 5.136774432230823 0.17652714627989585 460.7032470703125 0.0 0.0 458.29510498046875" Properties=species:S:1:pos:R:3 pbc="T T T"
Y        7.16942121       0.07594156     519.80450518
Rb      15.86848059       0.03584002     784.86748345
Rb      28.07110562       0.08278339     829.29578456
Rb      23.51085433       0.12748078    1019.34272612
Rb      14.23260405       0.07420454     477.88577962
Rb       6.28894445       0.16883943     688.04010800
Rb      31.94739381       0.12504444     874.39672008
Rb      32.48648018       0.17265030    1045.34670798
Rb       3.43964293       0.11508354     562.58182128
10
Lattice="3.853715181350708 0.0 -0.004518815781921148 -0.015085191402346237 5.63897070138772 -2.3581900596618652 0.0 0.0 7.710169792175293" Properties=species:S:1:pos:R:3 pbc="T T T"
H        0.04039334       1.96262139       5.11232717
Na       0.04958423       0.03065245       7.52106050
K        1.97201047       1.56728160       2.72406376
H        1.95917515       5.45086974       3.53709945
H        0.03822136       4.36499214       1.37054444
H        0.03511131       4.57524099       0.41420957
H        0.04211525       2.85730936       4.97174698
Na       1.96679519       3.16484257      -0.94828014
H        1.95751275       4.84005947       3.09574972
H        1.97324123       1.22098017      -0.01954408
12
Lattice="6.130893707275391 0.0 -0.058318767696619034 -0.04957213151744621 6.843282921497867 -2.822726249694824 0.0 0.0 8.718192100524902" Properties=species:S:1:pos:R:3 pbc="T T T"
K        4.59377208       6.15732943      -1.79434044
Hg       4.60512891       3.23385538       2.10709126
Hg       0.00397205       1.96978714       5.34968765
Hg       3.02972486       5.96501228       1.50067287
K        1.55369543       1.85900484       2.25595733
K        1.53581243       3.97855809      -1.07725187
Hg       3.09977455       1.96938536       5.32834180
Ag       3.04598709       4.65690196       4.18719114
Hg       1.57107501       0.24081789       7.78739489
Ag       0.02811013       4.65508521       4.20861589
Hg       0.01136989       5.97007952       1.51176034
Hg       4.62227970       2.25558607      -0.72022083
10
Lattice="4.093983173370361 0.0 -0.0018908492056652904 -0.0016969401689538317 4.095210200633402 -0.0027857753448188305 0.0 0.0 10.627998352050781" Properties=species:S:1:pos:R:3 pbc="T T T"
Zn       2.40102585       1.23390131       2.06027089
Ga       2.40112389       1.23578645       7.37475208
La       2.40087907       3.28236989       4.63153383
La       0.35273817       1.23391950      10.11436320
Co       0.35337353       3.28114967       7.38248937
Ga       0.35324274       3.28179627       2.05832091
Co       2.40194712       3.28301137       0.65127693
Ga       0.35472057       1.23558019       5.90698861
Ga       2.39925967       3.28254955       8.84647674
Co       0.35483310       1.23381820       3.47008611
12
Lattice="7.232146263122559 0.0 -0.8886369466781616 -4.054771234684353 7.134197275446015 -1.0853924751281738 0.0 0.0 9.756464958190918" Properties=species:S:1:pos:R:3 pbc="T T T"
Br       2.17878491       3.00196072       2.92470061
Br       1.40544478       4.62245127       4.68198584
Rb       0.73903912       4.42062587      -0.09608116
Mn       5.35047885       1.22323905       7.98845588
Mn      -0.14131984       1.44370766       3.15602849
Br       0.00575553       0.56762903       0.60421760
Br      -2.84903827       7.04182343       3.30526017
Br      -1.30665274       3.53243676       2.82927021
Br       3.66400458       2.67887105      -0.98519856
Br       0.20824534       6.19168870       6.51103465
Br      -0.88177406       2.45276175       7.14841883
Br       4.98177232       0.22753933       2.72928808
6
Lattice="3.3417749404907227 0.0 0.007217145524919033 0.005146966866068659 4.980415545718005 -1.6819963455200195 0.0 0.0 8.221658706665039" Properties=species:S:1:pos:R:3 pbc="T T T"
Li       0.43633630       3.37016881       3.35999769
Li       2.10358010       2.60256417       1.08185247
Sm       2.10481687       0.87988111       4.20484153
Li       0.43420425       1.80452720       6.94513033
Li       2.11158730       4.14211497       5.64518174
Li       0.43824122       4.93465016      -0.21846117
16
Lattice="7.546936511993408 0.0 4.274494171142578 2.493848994199268 7.129253090836579 4.276887893676758 0.0 0.0 8.680534362792969" Properties=species:S:1:pos:R:3 pbc="T T T"
Er       4.44588254       5.23901697       5.68412254
Er       4.51587750       5.28968641      10.14231113
Er       8.23313712       5.24857762      12.18351214
Er       3.26657301       1.72077013       3.66609790
Er       7.04912981       1.73043701      10.16624559
Er       6.98232253       1.68000851       5.70770921
Er       3.21408804       1.68253465       7.90924188
Te       5.75075674       3.48558621       7.92494854
Er       8.28716185       5.28982409       7.94361055
Sb       3.22251027       7.04833709      12.26805483
Er       1.97643585       3.48498429      10.13244038
Sb       7.00007145       7.05076773      10.06653516
Sb       1.97708620       3.48585074       5.78783752
Te       6.99786492       7.04819941      14.40402140
Te       3.22246779       7.04982437       7.92578838
Sb       5.74959455       3.48520993      12.26628523
4
Lattice="3.5357513427734375 0.0 0.000815437117125839 0.0011117177932416199 3.5349379221856774 0.0008481185650452971 0.0 0.0 9.960609436035156" Properties=species:S:1:pos:R:3 pbc="T T T"
Dy       2.12685664       1.33648431       2.84522486
Er       0.35941722       3.10385045       5.33527091
Dy       2.12692490       1.33641394       7.82558805
Er       0.35968680       3.10378893       0.35324514
11
Lattice="6.162676811218262 0.0 0.0036744417157024145 -3.0935477394025668 5.333548681932663 -0.0013556421035900712 0.0 0.0 15.143974304199219" Properties=species:S:1:pos:R:3 pbc="T T T"
K        2.90567402       2.82015171       9.92250236
Rb      -0.17767274       1.04279477       0.86158681
Rb      -0.17556718       1.04082336      11.85516076
Rb      -0.18313901       4.59885696      14.16408324
Hg       2.90109011       2.81769653       6.37990211
Au       2.90248531       2.82254489      13.98698562
K       -0.19373863       4.59594051       6.92708999
Rb       2.89948757       2.81308152       2.68809023
Au      -0.18966009       4.59635760       2.86367806
Hg      -0.18338100       4.59408808      10.48251048
Rb      -0.17723085       1.04046866       5.00726900
10
Lattice="52.930152893066406 0.0 855.7986450195312 42.83607043439768 51.10275840483057 673.1528930664062 0.0 0.0 1128.79736328125" Properties=species:S:1:pos:R:3 pbc="T T T"
Mn      17.51389445      20.30338812     744.63426992
Pr      37.93351606      15.86249314     795.41391891
Ce      22.45179107      18.41963744     417.23317800
O       50.63395092       1.27112772    1085.10198062
I       67.38032210      34.27319525    2135.48655799
Rb      32.82092248      25.42855536     554.79980815
Re      15.81470723       8.24116100     584.34588970
Rb      68.79741923      39.09487352    1833.65042981
Rb      40.03658670      20.17948144    1502.10989425
Rb      45.49814445      20.26040655    1077.66786606
5
Lattice="3.7375049591064453 0.0 0.0035521704703569412 0.003389008921550757 3.7351700190087476 0.004900895059108734 0.0 0.0 3.7417283058166504" Properties=species:S:1:pos:R:3 pbc="T T T"
Dy       2.55924531       1.41235854       1.69065841
H        0.69387730       3.27774704       1.68919325
H        0.69196332       1.41047628       3.55904310
Pt       0.69342633       3.28207459       3.56275378
H        2.56042874       3.27842541       3.56266718
4
Lattice="5.1012701988220215 0.0 -1.971051573753357 -2.494657170525429 4.483247901267986 -1.8917065858840942 0.0 0.0 5.50714111328125" Properties=species:S:1:pos:R:3 pbc="T T T"
As       2.70110315       0.32444003       3.83357414
Sb       3.71522956       2.17986698       2.34753331
Pb       0.10225390       0.35276610       2.19440177
Pb       1.35510204       2.67079702       0.29611924
8
Lattice="5.060179710388184 0.0 1.512319564819336 2.3315510087362408 4.491662988454399 1.5133363008499146 0.0 0.0 9.374249458312988" Properties=species:S:1:pos:R:3 pbc="T T T"
Mg       2.94007947       2.27651347       7.91092143
Tm       4.30382116       0.03023329       3.22767631
Er       1.05281935       1.12930592       4.95271877
Tl       5.22613844       0.59148867       9.47375855
Er       4.82636994       3.42394818      10.87581357
Tl       5.71435368       3.96155907       7.86749320
Tl       3.86082952       2.83628762       4.78607224
Tl       2.01651744       1.71584042       1.67169379
9
Lattice="4.3087263107299805 0.0 -0.0025082938373088837 -0.006616688610917897 6.2982705646207595 -3.641145706176758 0.0 0.0 7.280651092529297" Properties=species:S:1:pos:R:3 pbc="T T T"
Y        3.95075582       3.24888483      -1.70263433
In       1.79405913       5.38296873      -0.47087463
Y        3.94934735       4.35659660       1.93647991
In       1.79690120       2.22247873       3.17120055
Pd       3.95296839       0.65509110       4.07810719
Y        3.95280618       0.65328136       1.07601713
Si       1.79668410       2.75255375       0.43925786
Si       1.79419458       4.85054967       4.07671583
In       1.79872167       0.65390074       5.89267345
16
Lattice="6.289590358734131 0.0 -0.17900624871253967 -1.7751784730446623 5.6535782176528375 0.7541613578796387 0.0 0.0 10.22021484375" Properties=species:S:1:pos:R:3 pbc="T T T"
Mg       1.88311320       0.26668616       2.23746864
Mg       1.18301931       1.70569851       7.93807420
Zr       3.35689348       5.39000362       3.22148606
Zr      -1.44686200       4.83954285      10.83537390
Mg       3.80077956       0.67851871      10.15228143
Mg       0.77172019       3.00337918       2.90367744
Zr       3.15463831       0.85153360       5.00879460
Zr       3.92906581       2.53762260       2.51813178
Mg       3.27519902       4.92389220       8.00033982
Zr       4.27672898       2.14077867       7.57858606
Mg       0.15110485       4.56296354       8.05483449
Mg      -0.22746867       2.15381000       0.31715901
Zr       2.37325625       3.40905602      10.35485426
Zr       5.07032634       3.61641267       5.11857401
Zr      -0.02916575       0.93970320       5.22956539
Zr       2.04171846       3.55677673       5.57711861
10
Lattice="4.208704471588135 0.0 -1.33119535446167 0.4098542902886984 7.152152339560094 1.2641122341156006 0.0 0.0 7.280148506164551" Properties=species:S:1:pos:R:3 pbc="T T T"
Rb       3.28320435       3.16000036       2.63404507
Sn       1.47659624       0.73668491       4.24549969
Pd       4.09085272       0.09234087       5.19243014
Sn       0.34734166       4.09262143       7.96621933
Pd       2.15646496       2.43665454       6.39439855
Sn       1.83018202       4.83866355       5.33586882
Pd       0.62589539       1.49807985       1.56946637
Pd       1.03727969       5.74407806       2.85567816
Sn       2.91929078       7.11704343       1.47663859
Pd       3.70800938       6.40431251       3.96539279
20
Lattice="4.6448540687561035 0.0 6.104089260101318 6.244695907284098 9.79661667342735 12.167983055114746 0.0 0.0 16.675687789916992" Properties=species:S:1:pos:R:3 pbc="T T T"
Ta       7.81726396       7.81767478      14.46198400
Be       7.28574632       7.09785783      25.39659396
Be       2.88539245       0.15239170       8.60791928
Ti       6.65431874       6.06321891      17.46025139
Co       3.74892079       5.30842259       9.69817472
Ta       5.36548518       4.29798965      20.55748689
Ti       3.57697983       1.20501578      19.98869573
Be       5.91007306       4.93544589       9.83949909
Ta       8.60263589       9.24013490      24.33158807
Co       1.15942803       1.18456604       8.48093535
Co       2.51206988       3.15409041      20.66493702
Co       5.85507484       8.67836745      24.99472942
Co       3.03752668       4.13484337      13.18294844
Co       5.70378027       8.13180480      15.93300046
Be       4.14744337       2.28088877      14.43235897
Co       4.32896687       6.09447227      22.85768717
Co       4.61520749       2.95570607      10.67392883
Co       1.62734928       1.79903860      14.25652300
Co       0.86387983       0.61502802       2.83382272
Zn       4.85203243       6.85771097      19.23174392
20
Lattice="8.976238250732422 0.0 2.3964881896972656 4.84070623737398 7.9840561966086065 1.2233178615570068 0.0 0.0 16.172208786010742" Properties=species:S:1:pos:R:3 pbc="T T T"
Cl      10.92007714       6.67619497       7.20331385
Cl       9.52893244       6.91786887      10.98168112
Cs       9.73396996       1.36446511      10.49540813
Sn       5.03952874       4.46819428       6.82642434
Cl       3.13132761       4.83692853       1.49074636
Cl       9.31799798       5.47884942      12.60445325
Ga       5.23431139       7.88180525       2.21539819
Cl      10.17693020       7.84169798       3.58931018
Cs       2.91405497       1.80956480       2.51640605
Cl       5.18991053       3.17536679       4.55348485
In      11.80772899       6.89447855       5.02744258
Cl       7.52359663       4.84639915       6.74094323
Cs       3.77667109       3.61956646      11.35761694
In       5.90692136       7.84726633      13.26232807
I        8.96183878       0.27935616      17.03499524
Cl       5.60794326       5.05395244      13.75318858
Cl       7.88514704       4.54091312      16.85811727
Cl       5.11456830       5.98070397       9.59314818
Ga       7.75389291       5.05175622      14.88158654
Cl       4.91000508       2.30763688       8.26713969
12
Lattice="4.93121337890625 0.0 0.0015481720911338925 -2.466322232124696 5.130493563641605 1.717816948890686 0.0 0.0 6.9015960693359375" Properties=species:S:1:pos:R:3 pbc="T T T"
N        2.73363121       3.07650243       7.79662436
Tb       2.72347914       1.36340186       2.63455508
Nd       0.26436818       3.07708070       7.79653524
N        0.26422048       1.46495647       2.78894711
Nb       0.10537299       3.07655411       4.34389668
N        0.26279698       4.71694814       2.77226459
Tb      -2.20512756       4.79194314       6.05472299
Tb       2.72780197       1.37903702       6.05568078
Tb      -2.20001305       4.77546382       2.63194052
N        0.26582452       4.68654477       5.90129374
N        2.88541823       3.07707948       4.34496501
N        0.26355259       1.43716601       5.91763076
10
Lattice="4.18586540222168 0.0 0.0005537004326470196 -0.00015605282368480163 4.1867995233063535 0.0011257989099249244 0.0 0.0 9.538740158081055" Properties=species:S:1:pos:R:3 pbc="T T T"
Sm       2.59343227       0.12547080       6.68915070
Sm       0.50084593       2.21978498       1.92646348
Cu       0.50012078       0.12691253       9.07582491
As       2.59302389       2.21938395       4.31016667
Ni       2.59335218       2.22077246       9.07818799
As       0.50176762       0.12583519       4.30734824
Ni       2.59471619       0.12514629       3.17898139
As       0.50024822       2.22014583       7.79502064
Ni       0.50060885       2.21902135       5.43680548
As       2.59302477       0.12748070       0.81872912
10
Lattice="46.819889068603516 0.0 580.1148681640625 72.68550442443893 16.84517581633107 503.4834899902344 0.0 0.0 600.4710693359375" Properties=species:S:1:pos:R:3 pbc="T T T"
Yb      38.41645788       7.21000238     830.94444607
Si      58.15296973      13.31853401     599.79300097
Rb      52.60484285      10.98127763     824.07666486
Os      28.05251357       5.55711250     359.04159991
Ta      74.98435140      14.00039891    1105.14475981
Zr      49.44444870       8.24586695     726.65645948
Ir     104.19896295      13.55731333    1214.21558592
Er      70.46720485      11.94996870    1033.51720388
Rb      29.11702260       5.68268209     780.69690465
O       62.57334776       5.02168538     715.52576276
4
Lattice="4.055916786193848 0.0 0.004401635378599167 0.003354306021989189 4.057097002044077 0.0036324725951999426 0.0 0.0 8.578821182250977" Properties=species:S:1:pos:R:3 pbc="T T T"
Hg       1.05892854       3.73794878       6.87893761
K        3.08948045       1.70881918       0.80117322
Bi       1.06174985       3.73904979       3.26659010
Ce       3.08877640       1.71282472       5.01342145
10
Lattice="6.282037734985352 0.0 3.458076000213623 3.166304699537818 6.549782842182098 1.743756890296936 0.0 0.0 7.492653846740723" Properties=species:S:1:pos:R:3 pbc="T T T"
Ga       2.54694737       3.67361178       5.82139387
Y        8.98142884       5.95512042       7.48709301
Y        8.37536459       5.29380271      11.64479142
Y        4.26005871       2.04789928       4.14317472
Y        5.81880393       4.66024694       9.50817983
Y        1.11605192       1.38277489       6.87271481
Y        7.39887189       2.69435163       6.60769152
Y        5.23002429       5.34078626       6.17514151
Ga       2.52095984       0.40229177       2.05981990
Y        4.27172478       2.02931616       7.90178357
9
Lattice="8.072476387023926 0.0 602.0350341796875 -7.587910654988036 11.819296311455615 595.7916870117188 0.0 0.0 641.1395874023438" Properties=species:S:1:pos:R:3 pbc="T T T"
Sb       0.86842560       6.67073848     878.86581676
Ir       2.35865211       8.85216699    1376.52505901
Ir      -5.76530379       9.29260888     810.37593087
Er       0.89628324       9.85651950    1611.08267759
Cu       0.91075349       9.67985369    1305.63515035
Ca       6.43568726       1.61506752     974.95487844
Sb       0.20317794       7.24647036    1042.88884234
Li       1.11911413       3.87440978     562.12297897
Be       0.81147709       9.05217521    1084.58253067
15
Lattice="5.805990219116211 0.0 -0.0018572333501651883 -2.905643702368366 5.026112531753538 -0.00044802771299146116 0.0 0.0 7.1272196769714355" Properties=species:S:1:pos:R:3 pbc="T T T"
Ba      -0.60306276       4.94712866       1.02084340
Ba       2.30026689       3.27205360       3.34142755
Ba      -0.60147434       1.59664900       5.82206351
O       -0.60025238       3.21867240       3.34475492
O        0.80467264       0.78625533       3.34602803
Ti       2.29954096       3.27184269       6.98945402
O        0.89532996       4.08184885       5.82334501
O        0.84892160       2.43310595       1.02272143
O        2.30000850       1.64957948       5.82520802
Ti      -0.59963175       1.59618256       2.17400118
Zr      -0.60281592       4.94694112       4.58473284
O        3.75380507       2.43447068       1.02213753
O        3.79808503       0.78515550       3.34143671
O       -2.09892985       4.08358582       5.82712100
O        2.29966011       4.94855495       1.02093127
4
Lattice="3.5050456523895264 0.0 -1.5052623748779297 -0.651341986032183 3.4443066174021744 -1.5089386701583862 0.0 0.0 4.836329936981201" Properties=species:S:1:pos:R:3 pbc="T T T"
Ir       1.32811887       0.82556254       2.24108417
Ni       1.71394710       3.40755051      -1.68695518
Nb       2.75407547       2.54548822       0.73163851
Pt       0.28710152       1.68647223      -0.17738520
12
Lattice="4.196061134338379 0.0 0.08244645595550537 -1.722510550058033 6.793625032625184 -4.024533748626709 0.0 0.0 7.573479175567627" Properties=species:S:1:pos:R:3 pbc="T T T"
H        2.53099078       3.03683642      -0.85155642
La       2.24634108       0.43223949       2.33681797
La       0.71308987       6.17111355       3.53674376
La       0.29656869       3.88998722       0.81572409
La       3.82458021       0.62355853       6.26951532
H        2.36533075       2.43579299       1.18174525
La       2.33032895       4.30617390       4.69082683
H       -1.55296258       6.66650404      -2.94997909
Sb       0.20401169       2.32972278       3.57684682
H        2.39458145       4.93086108       1.93660624
H        0.28130952       4.82245401      -1.61728564
H        0.31102074       6.53858736       1.09375328
15
Lattice="7.154172420501709 0.0 3.3137717247009277 2.814867278010382 6.578369453258268 3.3119211196899414 0.0 0.0 9.376338005065918" Properties=species:S:1:pos:R:3 pbc="T T T"
Cs       1.27296743       1.16787806       4.19120832
Cs       6.25751400       4.45660579       7.50380718
Dy       6.25711097       4.45904819      12.19426813
Cs       4.84928307       1.16929884       5.84801559
S        5.53600925       6.34292983       4.68876451
Dy       1.27128940       1.16746273       8.88085268
Nb       4.84863070       1.16906280      10.53710444
S        3.63867990       2.57238460       8.77493277
Dy       2.67989287       4.45779386      10.53736246
S        4.03670794       2.83510271       2.92313963
S        8.87413707       6.34298394       6.23601571
S        8.47837502       6.08271881      12.08789549
S        7.56313096       2.95941257       4.67558375
S        4.94868320       5.95482122      10.32915263
S        6.97554182       2.57143453      10.32340847
18
Lattice="12.660984992980957 0.0 260.6958923339844 2.7421909253232006 15.89322195010793 247.7476806640625 0.0 0.0 234.6019287109375" Properties=species:S:1:pos:R:3 pbc="T T T"
Rb       6.30382184       2.61914714     270.64079134
Rb       4.76502951      12.56624134     329.92123882
Nb       4.01911035      13.73320961     405.29058909
Zr      11.54363664       5.61464532     406.06678155
Rb       6.16715251       7.56126143     268.49976561
Rb      10.99019060       7.43999014     398.32976190
Rb      13.85307890      10.61297180     539.97267526
Ba       3.25242432      15.12092191     267.94049032
Rb       7.40623068       2.61901404     371.14674028
Rb       2.65359003       7.90062713     157.50602970
La       6.08239715       2.43758999     263.92149762
Rb       7.57046979       7.69622372     281.38636025
Rb       7.57439560       3.11247934     325.35999970
Hg       3.92843867       2.94798302     283.48462627
Yb      11.00931461       7.16640469     477.29478793
Cs       6.71157634      13.66008676     536.50291794
In       9.37524724       1.40567590     280.95202720
Br       2.68808658       0.07299494      57.09239862
11
Lattice="28.805034637451172 0.0 605.344970703125 -6.882577109967002 1.1623017270039904 671.2448120117188 0.0 0.0 673.782958984375" Properties=species:S:1:pos:R:3 pbc="T T T"
Bi      10.73571981       1.08146117    1073.16784910
In       2.82909609       1.03225398     990.62538591
Rb      13.25400208       0.99324633    1607.32756509
Rb      20.38423027       0.32649125     841.80782293
Br       0.70914083       0.78740907    1167.53646208
Au      -1.38522100       0.39829102     719.66349623
Sb       0.31499418       0.88809558     965.12861540
Nd       6.04384887       0.25388674     814.94016280
Sn      20.28509599       0.49810701     933.39318754
Rb      15.46079999       0.33865061     596.19433860
Rb      12.01839222       0.83145535    1234.38047530
13
Lattice="28.499183654785156 0.0 147.870849609375 48.60714164644901 6.348423892070711 155.07427978515625 0.0 0.0 176.26223754882812" Properties=species:S:1:pos:R:3 pbc="T T T"
Br      60.93347888       4.28557406     371.10792950
Rb       9.28851927       1.06726815     136.46609507
Rb      26.70874938       2.65939723     126.53493254
Rb      19.42932309       2.37968005     226.48639222
V       45.19142880       5.10117653     182.70334356
Rb      44.63521890       5.72390285     268.67835372
Rb      63.47931372       4.89997832     418.50339820
Ga      39.80988910       2.66969678     204.26518107
Ag      32.78902175       1.22142745     305.40599668
Rb      40.27856818       5.18308857     297.25309811
Rb      14.02976173       1.71766209     131.63925607
Te      28.24464354       2.80699004     255.38444505
Te       8.65777238       0.27842293      59.86623602
12
Lattice="6.269720077514648 0.0 0.7268245220184326 1.2430969147794704 5.645666299622304 3.1498234272003174 0.0 0.0 6.902040004730225" Properties=species:S:1:pos:R:3 pbc="T T T"
Ba       3.04467425       1.17060207       2.60357091
Ba       3.86583328       4.91877080       9.32186623
As       3.38511526       2.77948639       6.47365531
Ce       6.37673965       2.14637716       8.04676207
Ba       6.02526576       0.37677443       4.51963139
N        0.83578199       0.33209659       1.23996029
N        2.16623907       3.39872812       7.77399759
N        5.35232860       2.56596201       2.94993857
N        4.40033284       1.25210329       6.91133052
N        2.17688616       2.12195039       5.18229758
N        4.74340466       4.08544255       6.53277143
Ba       6.78272324       3.95123141       4.67095694
8
Lattice="3.9147071838378906 0.0 -0.0015453138621523976 -0.001579112984860482 3.913496175703695 -0.0017407764680683613 0.0 0.0 7.713566780090332" Properties=species:S:1:pos:R:3 pbc="T T T"
Li       1.57457926       1.25460624       2.84659632
Pt       3.53154584       1.25438615       0.90485157
Pt       3.53194751       3.21157488       2.84528067
Pt       1.57304402       3.21208782       0.90397598
Pt       1.57296377       3.21176638       4.78504499
Pt       3.53062912       3.21227653       6.70193967
Al       1.57415714       1.25523313       6.70367063
Pt       3.53147441       1.25504174       4.79083813
12
Lattice="4.209954738616943 0.0 -0.006888798903673887 -2.129932252581171 8.344868081977152 -1.4792883396148682 0.0 0.0 11.767394065856934" Properties=species:S:1:pos:R:3 pbc="T T T"
Te      -0.54900237       8.26462717      10.20675246
Te      -0.53823770       4.65285739      -0.21861526
Ca       3.67868441       1.93566838       1.45638882
Nd      -0.53740719       5.71977560       3.25645282
Te       1.55399472       5.44219455       5.93548636
Te      -0.54713312       7.75019210       7.39101058
Nd       1.56244673       6.03676111       9.22253644
Te       1.56413871       8.33654471       3.84153303
Te      -0.54399411       3.63536063       7.50843888
Te       1.57297923       3.26316252       3.19155224
Te       1.56167595       7.19525631       1.34888210
Te       1.56619697       2.82620634       9.37592211
11
Lattice="4.835396766662598 0.0 -1.3450034856796265 -0.34655188344376386 6.603435238958403 -1.2515661716461182 0.0 0.0 9.413961410522461" Properties=species:S:1:pos:R:3 pbc="T T T"
Er       3.12046933       2.11846826       2.62694734
Nd       4.18715530       4.89399133       6.47652594
Er       2.37259167       3.96565010      -0.07700791
Er       4.68829892       1.69638914      -1.13043722
Nd       0.27816495       6.44856647       1.75306880
Ga       2.49950496       0.27351545       0.37802030
Ga       3.89985753       1.83205282       5.43799273
Er       1.27297495       3.42566554       5.35518090
Er       3.28355496       5.46165116       3.21592230
Ga       0.47026920       3.50905187       2.45702748
Er       1.69964953       0.36477458       6.89861746
5
Lattice="4.8545918464660645 0.0 -0.004636279307305813 -0.005565668445113683 4.8547822520284605 -0.00458900723606348 0.0 0.0 5.064760208129883" Properties=species:S:1:pos:R:3 pbc="T T T"
Nd       0.06300766       1.42251912       4.10304606
C        0.06300392       1.42389492       1.57050345
Ho       2.49180504       1.42349125       1.56722170
Ho       0.06187039       3.85041924       1.56754858
Al       2.48898564       3.84895475       4.09734343
12
Lattice="5.2483367919921875 0.0 -0.0014398513594642282 -0.006529504266984677 7.305588665320256 0.044556062668561935 0.0 0.0 10.983242988586426" Properties=species:S:1:pos:R:3 pbc="T T T"
Pr       5.05410737       7.14326839       5.63452145
La       2.43461651       1.67456757       3.74089617
La       5.05784505       3.53465059       5.55652553
Ho       5.05815501       3.48184785       1.95741854
Pr       2.43614887       1.62505724       0.09015803
Pr       2.43560506       1.66876099       7.43917560
La       5.05853625       3.49456247       9.28418723
Tm       5.05543038       7.11483631       9.28398907
Tm       2.43148370       5.32341163       3.76176549
La       2.43286649       5.31577738       7.45083121
Pr       2.43331399       5.29407078       0.15727313
La       5.05551070       7.10827717       1.96879129
12
Lattice="4.28828763961792 0.0 -0.9473448991775513 -0.5221001902726046 8.692592428527302 -2.1771926879882812 0.0 0.0 9.960097312927246" Properties=species:S:1:pos:R:3 pbc="T T T"
Tb       2.48317457       2.82763873       0.14251213
Li       2.16984337       1.37989864       4.47411143
Te       0.24799141       4.92586918       0.21748199
La       3.85576464       4.26114778       6.18570357
Sc       3.61142656       8.52743893       5.17830855
Te       1.81907049       1.87702296       7.18513280
Tb       0.93208716       5.65981670       3.14315334
Te       0.45069754       0.71604859       1.10630249
La       2.25594258       7.17719158      -0.82246683
Te       3.15152733       3.50488721       3.10212408
Te       1.55969227       6.58338900       6.05864422
Te       2.99881892       7.79718041       2.27382428
6
Lattice="9.424370765686035 0.0 46.206817626953125 14.983722468246583 6.217784344293025 43.397972106933594 0.0 0.0 56.28733825683594" Properties=species:S:1:pos:R:3 pbc="T T T"
Eu      16.25670827       3.39664473     101.02852604
Fe       3.93620485       0.03230741      75.35735995
In      17.28577704       6.04234443      67.62479044
Rb       2.71735700       0.24912497      41.81494543
Rb      15.38855691       3.17726876      83.66406653
Rb      17.13211502       3.87077275      74.52842088
4
Lattice="78.27336883544922 0.0 103.49238586425781 11.70352188936431 3.0117791471266755 67.50899505615234 0.0 0.0 134.0674591064453" Properties=species:S:1:pos:R:3 pbc="T T T"
H       37.05556357       0.36416116     159.57114850
Rb      29.12761320       2.53169980     200.44507258
Rb      72.40269181       2.42712615     184.15359741
Cs      31.80447073       1.30127703     163.17398262
12
Lattice="6.345963954925537 0.0 -1.868774652481079 -3.3358958992197065 5.691078789494849 -2.696953773498535 0.0 0.0 7.273993492126465" Properties=species:S:1:pos:R:3 pbc="T T T"
Na       0.28627505       2.32288361       4.76074453
Ni       5.28477126       1.35276019      -1.24993410
Se      -1.18787832       3.74248148      -0.49352546
Na       2.64110626       3.64371131      -0.29888873
Ni       2.17960694       0.03615071       0.22873236
Na       3.71847011       0.49372751       2.79408634
Na       2.84819520       3.49868413       3.31974390
Se       1.07851087       1.72268962       1.66233255
Na      -0.42959077       4.19453091       2.28193608
Se       1.16715916       5.27327581      -2.41861093
Se       2.99385715       1.35445075       5.48191343
Se      -3.26026761       5.65388729       3.54525895
16
Lattice="202.9618682861328 0.0 1188.201171875 73.2067145409428 24.750856442540396 1241.6033935546875 0.0 0.0 1346.6885986328125" Properties=species:S:1:pos:R:3 pbc="T T T"
O       37.80072410       8.82894849     999.59024219
Rb     180.83334460      13.21102921    1602.45910559
Rb      92.85770083       1.57517932    1257.34559138
Br     174.00681354      11.62173473    1954.49549110
Ag     227.06999757      11.47928157    2814.01069310
Mg     125.51340845      17.96141526    2553.26197397
Si     145.98157675       1.29728623    2060.38839709
Br     247.79829288      24.38748220    3347.88727155
Au     123.60602434       5.17827146    2161.46983122
Rb     168.87923582      21.81519364    2047.88064412
Rb     188.28987477      10.34974711    2773.34300545
Si     168.98133916      14.44352987    1644.07051049
K       64.85918752      11.69600110    1686.25310054
As     202.53832262      16.28770827    2710.31162187
Mn     189.72165181      19.22060200    2200.94407309
Rb     126.73297416      17.27148351    2180.11893379
4
Lattice="3.9977755546569824 0.0 -2.1971709728240967 -1.404053878389206 3.7430835335449197 -2.1956419944763184 0.0 0.0 4.595607757568359" Properties=species:S:1:pos:R:3 pbc="T T T"
Pd       2.99642636       1.71373379       1.12020914
Pd       0.29600964       3.58658329       1.12075152
Bi       0.34937532       0.77953681       1.01774441
Li       1.64515857       2.64972455      -1.17906809
7
Lattice="5.264319896697998 0.0 -0.01117074117064476 2.6257277533490537 4.571423970395218 -0.003332288935780525 0.0 0.0 8.028555870056152" Properties=species:S:1:pos:R:3 pbc="T T T"
Zn       1.25031565       2.08076390       2.35359960
Nd       3.88260253       3.61373374       6.29719515
Ho       3.88174002       0.56948942       0.04003344
Nd       3.88198086       3.61579994       2.07178852
Zn       1.24554291       2.09209926       7.94612059
Ho       3.87679176       0.57308623       3.80273413
Ho       1.24522638       2.08839274       5.13526955
7
Lattice="4.767288684844971 0.0 -1.9118952751159668 -1.5046884142698362 4.507960433922349 -1.8750556707382202 0.0 0.0 6.158784866333008" Properties=species:S:1:pos:R:3 pbc="T T T"
Te       0.55293195       3.40151021       1.16487520
N        0.33049786       0.09359726       3.05346058
Eu       1.76413579       2.52415450      -1.91880569
N        2.53468577       0.79766026      -0.28174898
W        3.61338009       1.17668895       1.15574497
Eu       0.11404396       0.28482590      -0.01866044
N        3.65951306       2.32017870       2.58462183
14
Lattice="6.276459693908691 0.0 0.9406107664108276 -0.561037951443027 6.817746514127204 -1.1510372161865234 0.0 0.0 7.9275336265563965" Properties=species:S:1:pos:R:3 pbc="T T T"
Dy       4.37241020       4.19221969       2.31816831
Hg       3.26292094       1.17570153       1.90232620
Dy       3.95867369       0.32887437       4.63192837
Dy       2.77415751       5.77485319       6.57417651
Dy       1.24176377       5.12814277       1.77494129
Dy       3.58258472       2.64534140       7.19375633
Dy       0.36638153       1.36894012       2.14735927
Hg       0.32982531       3.12379154      -0.38339962
Dy       0.37432555       0.67417383       5.97188363
O        4.43830323       0.62901070       6.73887879
O        5.39854383       6.20471558       2.72261798
O        3.16714874       4.54452241       0.51811531
Hg       2.25154445       3.22299930       4.35884604
Hg       5.88003236       4.42329796       5.79434025
20
Lattice="6.126662731170654 0.0 0.1355341225862503 0.17666170984983612 6.677409623624837 -0.5424744486808777 0.0 0.0 7.517930507659912" Properties=species:S:1:pos:R:3 pbc="T T T"
Gd       4.31567545       4.10792199       4.62171854
O        4.99182105       6.23108086       0.29220607
Gd       1.22283991       2.74500787       1.92191903
O        0.25429138       4.94364494       5.18739771
Sm       4.03030540       0.83883993       6.67761661
O        5.33067741       3.59692862       2.75253833
Gd       1.52073780       6.08330692       3.65679604
Gd       4.40910395       1.11830196       2.89303849
Yb       1.11881807       5.83060304      -0.18887112
O        6.05558538       2.93664830       0.15547887
Sm       4.16653550       4.16113322       0.85311230
O        3.25133505       1.95720886       1.08078177
O        1.75460080       0.66798570       6.27647540
Gd       1.11508284       2.79208864       5.69530856
O        2.87683451       4.21373112       6.42191327
O        2.47064802       2.75237733       3.87087012
O        5.17246211       1.94875703       5.05643510
O        0.48085179       0.68102547       2.56039224
O        3.76981436       6.23971199       3.85914143
O        2.06354511       4.87300111       1.72729166
8
Lattice="4.489837646484375 0.0 -1.0053050518035889 -0.2276325418721831 4.494752649497927 -1.0091248750686646 0.0 0.0 10.590041160583496" Properties=species:S:1:pos:R:3 pbc="T T T"
Sn       4.17077233       3.15614831       6.34102563
Sn       0.70783665       4.23925054       1.34720318
Sn       1.37345872       2.57416611       4.35041938
Sm       2.04247721       0.91052605       7.34986581
Sn       3.73347367       0.32697769       4.35481110
Sm       3.06580024       1.99144971       1.35732996
Sn       2.43970591       3.69862880       9.13869296
Sn       0.30934189       1.45316775      10.15236677
12
Lattice="5.932348251342773 0.0 1.0736732482910156 2.960608698836439 5.229359864800646 0.5361162424087524 0.0 0.0 11.392563819885254" Properties=species:S:1:pos:R:3 pbc="T T T"
Y        7.11518683       4.12989277       6.65648835
Ho       5.64644900       0.64349500       3.46329277
Y        1.18506349       0.64328036       5.58230434
Mg       5.64387512       4.13063336       3.46456138
Y        4.17296420       4.13088552      11.66587067
Sc       5.64747250       2.39666188       9.15480974
Y        4.15124979       2.38704254       6.11772557
Y        4.17660689       0.64422320      11.66876084
Y        7.14087886       2.38789112      12.20742403
Ho       2.67901568       2.38625379       2.92435342
Sc       2.68344609       0.63572828       8.61926410
Sc       2.67841172       4.12980207       8.61915713
16
Lattice="7.446516513824463 0.0 3.9319419860839844 2.5929177585597634 6.873550880740783 3.9337282180786133 0.0 0.0 8.83950138092041" Properties=species:S:1:pos:R:3 pbc="T T T"
Pd       4.90491472       5.76515847       8.22347994
La       2.38766056       4.23062245       8.24299738
La       6.14964174       3.93873362       6.27661788
La       1.06695000       0.72149416       6.23822093
Ru       7.33110432       2.32885090       8.22134721
La       5.06941191       0.63409442       8.26129232
La       4.83109578       0.42913797       4.26869063
Cl       4.90423951       5.76617943      12.64219102
Ru       8.63074999       5.76729585      10.19112389
La       6.28488161       4.09699615      10.23150514
La       0.92865289       0.56037703       2.28205696
La       2.14348039       4.02381141       4.25140589
Cl       3.60734754       2.32825828       6.25763531
Cl       3.60607329       2.32859074      10.67685275
Cl       7.33081874       2.32910102      12.64400963
Cl       8.62613973       5.76597212      14.61108890
10
Lattice="71.44984436035156 0.0 999.12158203125 23.13877001309038 38.993767689996695 750.0770874023438 0.0 0.0 752.9242553710938" Properties=species:S:1:pos:R:3 pbc="T T T"
Rb      32.22140415      30.39782464    1214.24260024
Rb      42.88367344      33.00913696    1372.44475310
Mn      75.75860152      31.94753328    1821.38604830
Rb      11.20304057       3.32783043     457.18181462
Rb      88.44051955      29.87247191    2064.55675860
Pt      49.47284482       5.38126648    1267.30765562
Tl      62.23849174      37.15699592    1856.58864922
Rb      57.80773515       6.06581769    1474.00595414
V       27.80900420      36.71564710    1003.65417332
Rb      52.20457711      10.22417510    1531.88457800
5
Lattice="38.107479095458984 0.0 272.80816650390625 41.069219187732415 8.060034733025434 280.0706481933594 0.0 0.0 279.49298095703125" Properties=species:S:1:pos:R:3 pbc="T T T"
Rb      51.85796684       3.41986949     389.74041415
Rb      55.50708714       8.05073053     566.16573233
Rb       5.75659429       0.95724892     310.33753653
Rb      42.70993256       5.15012101     514.55716387
Ca      34.80739778       3.55898750     511.73555742
11
Lattice="7.693810939788818 0.0 1.1035915613174438 2.7166483032554813 8.334208410188555 0.08875775337219238 0.0 0.0 7.90767240524292" Properties=species:S:1:pos:R:3 pbc="T T T"
Hg       7.18311848       2.01174145       1.52952511
Te       2.21307571       5.77745452       4.65124570
Hg       5.94206216       2.41218851       6.90030573
I        6.05442777       0.06683243       4.19764340
I        7.65685665       4.14986051       4.19617859
Te       6.42693549       6.83491271       2.81056659
I        2.70224801       0.93794491       1.69362774
I        8.16052139       6.29996496       8.24098815
I        4.34568773       7.38590772       5.64799080
I        4.33035859       5.17208344       1.83684052
I        3.14543623       3.25075570       5.72263123
13
Lattice="3.9454734325408936 0.0 -0.0011162824230268598 0.0006885593330949915 3.9508828516811154 0.0005527600878849626 0.0 0.0 11.870908737182617" Properties=species:S:1:pos:R:3 pbc="T T T"
Cu       3.77330446       0.17156297       7.01549018
Ba       1.80339054       2.15016018       5.08930990
O        3.77149874       2.15456810       7.64778816
Cu       1.80137381       2.14855013       8.10823338
Fe       1.80090924       2.14992846       0.25726576
Ba       3.77242173       0.17344287       2.20133153
O        1.80745434       0.16977926       7.68628781
La       3.76956734       0.17258711      10.27096676
O        1.79972902       0.17294726       0.03073828
O        1.79666716       2.14660780      10.06785942
O        3.77228805       2.14969886       0.03265029
O        1.80029912       2.14942145       2.31877251
O        3.77664940       0.17640964       4.92774822
7
Lattice="5.094635486602783 0.0 -1.5148227214813232 -0.4564047304096091 5.074903327224463 -1.5149900913238525 0.0 0.0 9.408182144165039" Properties=species:S:1:pos:R:3 pbc="T T T"
Cs       2.48875423       0.07618923       8.39136619
Ge       4.15006116       1.89178992       4.62803739
Cs       0.70970257       3.70570647       2.37917207
Cl       3.92114401       4.42933566       3.86932515
Cl      -0.22909789       2.67780419       8.57882458
Cl       1.60175707       1.89099861       5.38396886
Cl       3.42709307       1.10411733       2.18539366
12
Lattice="186.47198486328125 0.0 788.819091796875 -1.4937016927490288 12.222942799517089 928.8858032226562 0.0 0.0 1020.9764404296875" Properties=species:S:1:pos:R:3 pbc="T T T"
Rb      48.50154873       8.91720061    1769.83651148
Ho      28.34679191       1.96541854     603.17134503
F       57.51256019       1.26204977    1157.31441242
As     146.62367544       4.56155890    1294.61670717
Rb     166.01710863      10.17942669    1695.58417768
N      111.88234813       8.82604954    1174.44237843
Rb     136.09263612       9.90693806    2315.23820819
Rb      38.60950951       3.33479835    1413.29800145
Rb       1.96826873      11.43469298    1870.57054233
Ba      48.01284907       5.24394906    1134.15182189
Ca     169.61412654       8.37859593    1600.33716930
Y      164.70482433      10.16474288    2227.07809149
11
Lattice="4.1069655418396 0.0 -0.0009480227599851787 -2.052212328393267 3.558704376598859 0.0017182339215651155 0.0 0.0 16.06527328491211" Properties=species:S:1:pos:R:3 pbc="T T T"
Cu       0.77588869       2.87738300       0.88497053
P        2.82878422       1.69031180       5.14388873
Cu       0.77501596       2.87864509       5.37733499
Cd       0.77375182       0.50691264       7.00197851
Sr       0.77453553       0.50458770       3.05506614
P        2.82928296       1.69076626       0.89107730
P        2.83181698       1.68914697      12.57671710
Sr       0.77306628       0.50573190      10.52888133
Sr       0.77465946       0.50503351      14.82674801
P        0.77217802       2.87922543      12.63953539
Cu       0.77463202       2.87699186       8.37543623
12
Lattice="97.98219299316406 0.0 528.84619140625 122.53206921009405 92.81459277673109 507.57501220703125 0.0 0.0 573.5045166015625" Properties=species:S:1:pos:R:3 pbc="T T T"
I      169.53697092      63.07366054     828.08684157
Sr     141.21988938      56.86096061     789.68429913
S      135.53792440      53.73380688     851.87146846
Se     119.61865061      74.39128544     608.62909601
Cl      97.88489546      30.46260799     793.16964958
Os      53.86549295      23.90952957     426.55253074
Rb     133.28089307      73.39547076     709.82084112
Li      66.19247288      21.35654568     361.13665881
Rb     160.48636300      52.92209212    1316.71416725
Tm      96.36059370      11.02799449     640.37685293
Ti     144.48939896      62.55512923    1119.30615143
Rb     122.25921372      56.16957078     645.03368033
10
Lattice="3.943676471710205 0.0 -0.00018446054309606552 -0.0010811252294033215 7.717703743550841 -0.23960039019584656 0.0 0.0 7.7715888023376465" Properties=species:S:1:pos:R:3 pbc="T T T"
Y        3.79423628       1.80299548       1.73470690
Y        1.82273552       6.72180801       2.47345198
Ag       3.79535091       6.64764918       7.51729432
Ag       3.79483324       5.05064512       4.75865231
Y        1.82386973       4.12984205       7.12757550
Zn       1.82361613       6.72044270       5.47267452
Y        3.79449648       1.34501889       5.20103612
Ag       1.82309656       1.00663020       7.45688161
Ag       3.79439202       4.65468791       1.76538940
Ag       1.82332178       3.26752177       3.64197985
12
Lattice="4.028994560241699 0.0 -0.737764298915863 -0.6000292261709319 8.633662068729455 -3.335622787475586 0.0 0.0 11.345650672912598" Properties=species:S:1:pos:R:3 pbc="T T T"
Hg       1.36310968       7.86341316       1.02505275
I        1.99818607       6.91844305       4.51593892
I        2.56474601       2.60739747       7.65402177
Sm       1.63311200       2.72019970       2.53605901
Sm       2.92336766       8.06833405      -1.81151258
Sm       0.37832588       0.39931128       7.07386485
Co       2.11575563       1.91230644       5.16422067
I        0.72882740       5.87138172      -2.39681721
Co       3.93348908       1.15815712       3.70845666
I        1.15504297       1.01995791      -0.03185887
I        3.40078152       4.82940830       0.83035442
Hg       0.03225452       3.84599375       5.17475065
4
Lattice="4.406492233276367 0.0 2.54392671585083 1.4696694605553373 4.153062215537283 2.543430805206299 0.0 0.0 5.088399887084961" Properties=species:S:1:pos:R:3 pbc="T T T"
Mg       1.69685996       3.21952986       7.21600958
La       3.16770661       1.14365338       4.67669899
Ag       1.69785414       0.10499351       2.12875039
Ge       4.63605418       2.18132149       7.21723668
9
Lattice="4.784193992614746 0.0 1.587410807609558 2.390780589605356 7.600240950446643 0.7968297600746155 0.0 0.0 8.010350227355957" Properties=species:S:1:pos:R:3 pbc="T T T"
Dy       4.86513271       4.57529521       6.56413326
Sm       0.88157290       2.04334017       2.56576892
Sm       3.27127638       4.58907938       3.36000045
Sm       4.06739203       7.11523522       8.97418472
Sm       2.47740562       7.11520532       5.76035377
Dy       4.07251197       2.05454718       8.95818078
Dy       1.67834541       4.57604539       8.16273663
Tm       5.66399794       7.11592424       4.15550528
Dy       2.47426295       2.05486293       5.77113420
18
Lattice="7.732690811157227 0.0 -1.709272861480713 -1.375448467950143 7.388872318987935 -1.1821454763412476 0.0 0.0 7.863608360290527" Properties=species:S:1:pos:R:3 pbc="T T T"
Ho       4.66133889       0.76180530       4.17807615
Ho       0.94966679       2.56235191       0.30216090
Ir       7.20647486       0.23864915       5.11860756
Sn       6.57255091       3.95680095       0.60857269
Sn       1.84067284       0.51777053       2.79311516
Ho       2.57211752       5.83848076       0.02861816
In       3.41889620       3.24532275       5.96852640
Ho       5.63233589       1.06584751      -0.39751473
Ho       6.58966261       5.84874718      -1.83481924
Ir       0.92909689       4.56561646       6.11028489
Ho       0.65571561       7.08796011       4.94394482
Ir       3.31787755       6.10768469       5.14944984
Ho       5.17577614       4.74586483       3.38557879
Sn       3.77321407       2.63578959       1.55279475
Ho       0.08118461       2.32255864       4.77797220
In       1.84726652       4.73388301       3.08814067
Sn       5.49487208       6.84809372       1.07086675
Ir       6.12782260       3.05166429       5.42927733
10
Lattice="4.969114303588867 0.0 2.872462034225464 1.6594806979424135 4.683907900967849 2.8717734813690186 0.0 0.0 5.739995002746582" Properties=species:S:1:pos:R:3 pbc="T T T"
Sr       4.36146754       2.27750268       4.93048494
Pd       6.01805981       3.44825659       7.80052766
Sr       2.70588755       4.61946835       7.79811738
O        5.19914604       4.60573452       6.37616631
O        1.86965888       2.29025658       6.35097774
O        4.37831103       2.28784430       7.79834509
O        1.86741772       2.28843994       3.50490705
O        5.20179276       4.60817486       9.22345689
Hf       2.70422974       1.10527287       2.05867816
O        2.69051422       4.60735713       4.92997979
4
Lattice="3.630713939666748 0.0 2.0963406562805176 1.2112583737375715 3.423353144210687 2.096238136291504 0.0 0.0 4.192421913146973" Properties=species:S:1:pos:R:3 pbc="T T T"
Si       0.53267417       0.86189504       2.43700915
Li       1.74292254       1.71725218       4.53277552
Al       2.95319639       2.57245649       6.62903225
Rh       2.95273118       0.00621300       2.43612889
5
Lattice="3.8543567657470703 0.0 -1.3225656747817993 -0.4675937321540771 3.8236836793414213 -1.3230738639831543 0.0 0.0 6.392770290374756" Properties=species:S:1:pos:R:3 pbc="T T T"
Ti       3.23782054       3.38978903       2.91496979
Na       0.46707209       2.43268321       1.04165411
As       3.04334097       0.99278935       2.28752587
As       2.20949559       0.05153452      -0.20310974
Rh       1.54366844       1.47887467       4.23873284
9
Lattice="4.660239219665527 0.0 0.006683548912405968 -2.328556763107258 4.022366111654485 -0.001314422464929521 0.0 0.0 5.003482818603516" Properties=species:S:1:pos:R:3 pbc="T T T"
H        1.04180588       2.42997678       3.29652837
Ba      -1.28984755       2.59079263       4.71426034
Co       1.04137147       1.24828642       2.21620350
Zn       1.03793444       3.93166876       2.21853938
H        2.06972360       0.66069222       1.13883596
H        0.01097510       0.66277986       3.29309737
H        1.03300073       2.42911846       1.13898363
H        2.06351674       0.65665073       3.29701796
H        0.01065462       0.66027188       1.13671567
10
Lattice="4.529038906097412 0.0 -1.085265040397644 -0.3441491753955729 8.474212055198592 -1.4257869720458984 0.0 0.0 10.025361061096191" Properties=species:S:1:pos:R:3 pbc="T T T"
Cs       4.38639930       1.74485187      -0.04852873
Sn       0.54755373       5.89005919       3.91048130
S        1.72486072       3.64395014       8.83080114
Hg       2.80875695       3.33010981       3.39417890
Cs       1.11155973       1.54532013       6.27785829
Cs       3.65357465       5.61692860       6.88483679
Sn       2.20878120       5.02337469       0.85119532
S        2.94553054       7.42968151       3.93506429
Sn       2.37468500       8.36484021       1.53970885
P       -0.04759633       6.77707102       1.43603766
14
Lattice="21.250978469848633 0.0 513.9772338867188 8.5266766347213 16.89901962721322 517.138671875 0.0 0.0 497.6506652832031" Properties=species:S:1:pos:R:3 pbc="T T T"
As      22.76298309       5.74369603    1035.77338473
Li       2.36231031       0.87840972      82.30416017
La       8.68364921       9.99497008     659.01959779
Rb      17.90901536       6.42972978     744.12001486
Rb       9.83597777       9.35742079     820.33494257
Na       9.95977884       8.49619330     595.15144932
Er      24.50246017      15.85723573    1154.85868704
Rb      28.36155898      15.22282607    1380.59022768
Rb      20.33452654       2.65257531     909.85901685
Rb       9.54408838      11.92033056     564.39067840
Rb      19.22746713      14.55323282     835.33924136
Cl       6.08052036       9.55091847     786.33376696
Tb      12.33976090      16.50149941     883.36298052
Cs      15.93791578      13.21111318     739.74741076
2
Lattice="3.644674777984619 0.0 6.2695183753967285 1.668975809228016 3.2498347400900314 6.274224758148193 0.0 0.0 7.291473388671875" Properties=species:S:1:pos:R:3 pbc="T T T"
Au       3.52487690       0.86050233      13.34163303
Cu       2.58652161       2.50780806       9.78067157
12
Lattice="10.229686737060547 0.0 35.9969367980957 14.701173921360692 9.76761592049031 41.22185134887695 0.0 0.0 55.839996337890625" Properties=species:S:1:pos:R:3 pbc="T T T"
Rb      14.63418908       4.76400906      86.76004066
Rb       3.74780428       0.64321225      46.56176835
Rb       2.96590348       0.73404563      22.33030014
Si       7.69098213       0.78011009      41.57026766
P       11.93078990       4.33574243      49.91495189
Rb       4.04156243       0.97256704      61.49627374
Rb       9.32040969       5.34495727      82.83321208
Pt       7.86994784       1.39412117      80.58579454
Pd      20.90554609       8.71678838      81.24264698
Pd       9.70320881       5.53464755      55.86182889
Si      10.22754930       5.83862335      46.99265521
Pt      17.91973401       7.64718329     104.57034220
11
Lattice="6.977316379547119 0.0 -0.9982478618621826 -3.6729403584067777 5.94003840705487 -0.9993327260017395 0.0 0.0 8.670074462890625" Properties=species:S:1:pos:R:3 pbc="T T T"
Cs       1.36745791       2.54429367       5.62558679
Cs      -2.24132327       4.55872411       5.62179451
Te      -0.43816986       3.55052665       1.28948746
Bi       3.00153783       5.52376770       0.28899861
Bi       3.09605742       1.57694306       1.28619806
S        5.70554990       2.05453572       2.38182974
S        0.39397384       5.04658592      -0.80803069
S        1.99857880       3.92939156       2.44219760
S        4.10156315       3.17166917      -0.86215636
S       -1.39191767       5.82451665       2.44269482
S        0.52444612       1.27649993       0.13451215
4
Lattice="13.360801696777344 0.0 58.44849395751953 10.26700230379714 4.935863352340291 54.955745697021484 0.0 0.0 67.30831909179688" Properties=species:S:1:pos:R:3 pbc="T T T"
Rb       4.32013682       1.27820666      53.16065847
Li      17.85090275       3.59451261     126.16377673
Ga       6.82604594       1.27614991      79.08028347
Sm       8.69209861       0.16798117      75.86807766
10
Lattice="11.65190601348877 0.0 196.0799102783203 65.57042206295317 39.42031990956118 241.921630859375 0.0 0.0 214.04330444335938" Properties=species:S:1:pos:R:3 pbc="T T T"
Rb      25.55792775      14.44964743     242.23177260
Rb      29.55728137      14.28241575     202.64256068
Rb      48.97399146      28.35479300     256.46274632
Rb      44.02354237      26.37649971     338.78561682
Ti      59.25884497      33.17210930     391.63975301
Rb      25.29949598      11.88940146     209.62588976
Rb      36.04327538      17.26010360     237.77140752
I       34.52184727      17.25408619     208.43521149
Rb      29.02890588      14.57169331     171.99369078
Rb      68.33257209      37.29129995     493.34246182
10
Lattice="4.36581563949585 0.0 1.0243831872940063 1.701253107299791 5.467840930427396 1.5394461154937744 0.0 0.0 10.799476623535156" Properties=species:S:1:pos:R:3 pbc="T T T"
Sr       3.85752916       4.94609367      11.59678929
Ge       4.36096931       0.35640514       2.52165982
Sr       2.06275264       4.03863833       7.71634724
Sr       3.89185165       3.31997245       4.17491495
Ge       2.33808718       0.88590805       7.20807258
Pt       2.01267105       1.04710193       2.88842344
Pt       4.28864866       1.64124061       8.44592577
Ge       1.67700808       2.50821352      11.63197497
Ge       4.23557135       1.78155344      10.90834218
Ge       1.18875564       1.78381524       5.18365769
6
Lattice="5.1130146980285645 0.0 2.17649507522583 2.4915161117969538 6.442712351353048 1.2151786088943481 0.0 0.0 7.060261249542236" Properties=species:S:1:pos:R:3 pbc="T T T"
Rb       2.60155607       0.74838565       5.39033267
Tl       4.06499892       2.30123353       1.95768705
Rb       6.74917914       4.83895422       9.80626635
Tl       5.28555197       3.28307324       6.18325387
Pb       3.16496204       4.51060324       4.06019595
Pb       1.07536330       1.07224677       1.90142224
12
Lattice="4.621593475341797 0.0 1.3594504594802856 2.0892430473890045 4.121945501771158 1.3600413799285889 0.0 0.0 8.410022735595703" Properties=species:S:1:pos:R:3 pbc="T T T"
Sc       3.40946752       1.89338332       6.28316560
Co       3.85189062       2.16331420       9.01290699
Co       5.53295969       3.19583929       7.57566917
Co       0.50177032       0.10663486       3.42301265
Co       1.53866409       2.16348569       8.33464501
Co       2.81247457       0.10625116       4.10178510
Sc       2.19969479       3.98767677       1.89228641
Sc       4.26936500       2.42056874       3.40718919
Co       2.17505567       1.13423488       2.01656888
Ag       0.92806712       0.36777663       6.20676753
Co       2.80641940       0.10108191       8.33485579
Co       1.54699981       2.16930872       4.10423114
8
Lattice="4.042367935180664 0.0 -0.0009653979795984924 0.0017007952380548336 5.572000243964999 -0.003055057255551219 0.0 0.0 5.633559703826904" Properties=species:S:1:pos:R:3 pbc="T T T"
Tb       0.97482871       3.49596252       5.39478073
Tb       2.99398630       0.70646031       4.12042768
Co       2.99581085       3.49406679       3.04070762
Co       2.99650407       5.06971033       1.31842936
Co       0.97274332       0.70866523       0.83310163
Co       0.97362337       4.70954695       2.56143335
Co       2.99319282       1.91952422       1.31912593
Co       0.97439806       2.28145929       2.56119717
5
Lattice="4.1312785148620605 0.0 1.8421660661697388 1.391807228612833 4.818445313747616 2.459770679473877 0.0 0.0 5.58449125289917" Properties=species:S:1:pos:R:3 pbc="T T T"
Dy       1.33043201       2.42146492       3.02690686
Dy       4.32824175       4.40954244       7.42428907
Rh       2.51865568       2.34515039       5.92164241
Pb       4.19814538       1.00697174       7.70850098
Rh       3.13809605       4.48628733       4.53043335
4
Lattice="3.617649555206299 0.0 0.5530656576156616 1.7716988089925956 3.154836771253169 0.5522241592407227 0.0 0.0 12.214495658874512" Properties=species:S:1:pos:R:3 pbc="T T T"
Y        3.22492475       2.38196756      11.01493350
Nd       4.07167740       2.88049850       5.45427614
Ca       0.95770564       1.05825143       1.53139275
Ho       3.67168662       0.52892813       8.07958185
5
Lattice="5.712554931640625 0.0 177.5198516845703 34.788869859249644 0.5619032078130833 171.68234252929688 0.0 0.0 176.76939392089844" Properties=species:S:1:pos:R:3 pbc="T T T"
Na       6.18305140       0.04282401     150.42917630
Rb      23.39661605       0.35241528     316.27015576
Se      23.35780428       0.37306788     270.19227951
Rb      12.90427873       0.16627663     231.36804594
Te      14.00587888       0.19157690     267.23237365
8
Lattice="3.629585027694702 0.0 -0.0030250269919633865 -0.011610548680789711 3.815120196018747 -0.7756054997444153 0.0 0.0 9.862029075622559" Properties=species:S:1:pos:R:3 pbc="T T T"
Fe       1.25964953       0.51145443       1.76035521
Dy       1.25257076       2.93358477       3.89971342
Dy       3.07614119       0.02080495       9.17972799
N        3.06908372       3.35367442       5.97074294
Ge       1.25659270       2.12604472      -0.08037143
Fe       3.06644132       2.44113248       1.44075414
Dy       1.26294427       1.51293730       6.70095837
Ge       3.07182881       0.81032734       3.22697133
20
Lattice="32.137393951416016 0.0 638.5934448242188 15.547490109727732 27.28289556776363 688.6542358398438 0.0 0.0 649.0377197265625" Properties=species:S:1:pos:R:3 pbc="T T T"
Rb      20.56822859       5.50177744     856.04239006
Ti      39.85967247      19.51801546    1652.21771967
Er      31.13770659       2.59846964    1043.91860133
Rb      36.20934637      26.38557843    1314.07473190
K       42.48559837      25.67799506    1318.34378535
Rb      15.68390004       1.58890147     712.24121669
Rb      17.73320793       7.42056097     565.65938884
Rb      37.64366200      21.66466075    1355.63768028
Os      39.21342503      19.27408411    1624.00918835
Rb      18.87633181       1.30936200     951.80091783
I       12.94480671      21.57740442     951.51876049
Rb      27.44620984       1.32674503    1178.60067566
Pd      14.33988010      10.88224538     620.30634401
Rb      16.33277636      15.83875369    1148.93620837
Hf      11.05617009      12.71084665     988.48116352
Ga      46.69196356      25.79355843    1778.85487042
Ba      38.76526308      17.67501837    1497.50428190
Rb      17.10246445      11.88989283    1006.26662877
Er      21.27989494      13.08022615    1113.76176505
Rb      19.05156591       7.13822558     902.78124490
11
Lattice="4.76193380355835 0.0 0.0037009797524660826 -0.17391209666212162 4.0689550713090945 -2.309652090072632 0.0 0.0 4.78045129776001" Properties=species:S:1:pos:R:3 pbc="T T T"
H        3.91214697       2.66270985       1.90599637
H        2.97191290       0.09858634       1.86120453
H        0.26866394       1.40809438       2.77934497
H        0.75660537       1.79265055       0.49892886
Cu       3.72168593       2.42814005      -1.02311662
La       1.55257493       3.78081991       1.71529941
Rh       4.23201328       1.08484301       1.30598426
H        0.28990663       3.74661659      -0.75737110
H        4.11523940       0.29558443       4.59134902
H        2.15158969       2.06951322       3.36206152
H        2.93574060       1.80995860       0.47907365
8
Lattice="4.630346298217773 0.0 0.01812637224793434 0.04070127961141978 7.5448173374243686 -2.605860710144043 0.0 0.0 7.985611915588379" Properties=species:S:1:pos:R:3 pbc="T T T"
La       2.67748440       2.20577115       3.24944359
Ce       2.69743122       5.97622787      -2.04503703
La       0.36155793       2.20385158      -0.75384639
La       0.38247240       5.97702565       1.93676225
Sb       2.68676508       4.11087596       0.57277276
Sb       2.66617139       0.29417992       5.92833715
Sb       0.37206270       4.12856515       4.60851145
Sb       0.35166221       0.28286950       1.86764151
14
Lattice="27.657339096069336 0.0 68.02278137207031 42.59205412665597 4.1578425646623485 85.5662841796875 0.0 0.0 76.0972671508789" Properties=species:S:1:pos:R:3 pbc="T T T"
Rb      47.73802707       2.05867248     167.13005264
Sn      26.05443291       0.09759911     136.52054596
Rb      40.96561527       3.37734524      91.52490898
Sn      27.32161126       0.87117415      70.21273753
Rb      32.24078451       1.21173033     112.83472997
Rb      37.80114706       3.21065351     106.33549143
Cs      32.21966623       1.28567637     142.38011345
Rb      16.34563690       1.55589065      46.40845639
I       16.19326210       0.14956596      42.04511167
Rb      36.07305740       1.76688116     111.80716834
Rb      61.13425597       3.35761898     147.91070445
Rh      11.51226731       0.15209270      50.59233509
Rb      60.59630854       3.52510846     196.24029167
F       39.45940766       2.45742630     140.64495235
12
Lattice="5.373101711273193 0.0 1.4826666116714478 3.1838477602771023 9.856931417744823 -1.033904790878296 0.0 0.0 10.450858116149902" Properties=species:S:1:pos:R:3 pbc="T T T"
Cs       3.38477926       8.94892390       0.96751824
Cs       4.78837095       2.46383687       6.30704181
O        1.65212880       1.81832868       7.22577052
Rb       5.26953948       9.60420018       4.56025118
Rb       6.08994823       5.80853964       1.70037081
Cs       2.56846765       6.54302462       3.90016944
O        8.00364925       9.39939814       5.17029352
Cs       4.08924182       5.69585939       8.86752195
Cs       3.34099056       3.18517406       1.19556147
Rh       1.33830746       3.10963470       8.37101691
O        3.34352015       6.02244939       1.16476467
Cs       4.05475957       0.17434098       8.94941014
10
Lattice="5.108462333679199 0.0 2.388629913330078 -0.04442066872280525 5.272956189520356 0.7342682480812073 0.0 0.0 9.219077110290527" Properties=species:S:1:pos:R:3 pbc="T T T"
Ce       4.10462355       2.70442660       4.24727931
Ce       2.73572905       1.15822502       6.22835516
Ce       0.99101592       4.74509126       3.34960355
Ce       2.57792451       2.97432261       1.84677886
Au       3.95675961       0.26547896       2.65316627
Ce       3.89125057       4.05863330       7.89682575
Ce       1.11003111       3.52099230       7.81797263
Au       4.59809426       1.06861287       9.19207804
Au       0.66514730       1.80188048       4.27002688
Au       1.69607973       0.64666092       9.07536778
8
Lattice="5.020312309265137 0.0 15.390727043151855 1.4959161134920573 4.5068452795211975 14.789639472961426 0.0 0.0 20.912822723388672" Properties=species:S:1:pos:R:3 pbc="T T T"
Pd       2.65569037       0.29499957      24.29712590
Bi       0.85519754       2.53789152      23.86986101
Pd       0.17920495       0.33377495      21.40523267
Mn       3.48428452       2.63883233      25.57432358
Mn       0.96104656       2.59481104      13.25824178
Pd       0.19899118       0.44369132      11.12720964
Pd       3.50783489       2.63553384      36.78965055
Pd       2.57088411       0.22008695      13.46343146
17
Lattice="33.11986541748047 0.0 84.02220916748047 -13.626773311319198 16.18780713755614 98.02667236328125 0.0 0.0 113.44037628173828" Properties=species:S:1:pos:R:3 pbc="T T T"
Rb      22.10207745       2.01548413      87.10875931
Cd      14.72800339      15.17457268     214.06009820
Rb       4.46863135       3.07882372      99.17863463
Rb      13.67260873      12.56897522     208.02943359
Er       8.64161683      13.54355898     215.17769601
Rb      17.03220294       9.18414611     181.63067952
Li      15.06293162      11.61928990     146.37421579
Rb       5.98984275       5.76521179     115.60229177
Rb       0.86776492      13.26920055     212.17527354
Rb       0.69360298       8.82717854     133.79010169
Rb       9.74180102       4.38093908      69.56150180
Rb       1.37550807       5.38539854     110.76075462
Rb      20.28270631      10.18207196     221.46612540
Rb      10.92191911       0.07616235      53.34390505
Rb      25.41246223       5.24573287     195.36568880
Rb      25.05737560       8.12818052     161.95365463
As      32.53819919       0.38773183     111.30021663
8
Lattice="4.939488410949707 0.0 0.005332257132977247 0.007998094723608146 6.70170402101095 1.5117933750152588 0.0 0.0 8.600464820861816" Properties=species:S:1:pos:R:3 pbc="T T T"
Hg       2.37449927       0.58735548       8.00834939
In       2.38114349       3.29863196       3.64523449
Hg       2.37577969       3.87050041       8.60051882
I        4.84680588       2.77833125       5.75162389
Hg       4.84710638       1.91111627       1.48688747
In       4.84565440       5.91406042       7.33883766
Hg       4.84875758       5.32941907       2.35100341
I        2.37924613       6.42378122       5.23369125
8
Lattice="4.811559677124023 0.0 -0.00698931934311986 -0.013023295501949528 4.828060228518869 -0.006780214607715607 0.0 0.0 9.600261688232422" Properties=species:S:1:pos:R:3 pbc="T T T"
Mg       3.19736569       4.68683618       8.63947645
Y        0.79065218       4.68562090       1.51412003
Er       3.19722049       4.68601631       3.83939532
Y        3.20518516       2.27406119       6.15576163
Y        3.20409407       2.27251699       1.53377556
Zn       0.79792612       2.27339945       3.84440297
Er       0.79828784       2.27336981       8.64469098
Y        0.79064542       4.69009408       6.16866433
5
Lattice="3.8299944400787354 0.0 -1.4439975023269653 -0.5427736891866891 3.790137275556671 -1.4415221214294434 0.0 0.0 5.793826103210449" Properties=species:S:1:pos:R:3 pbc="T T T"
Co       0.60485784       0.83230847       2.54813894
Si       2.13983646       0.39134748       0.81655080
Os       2.25063706       2.72507994       1.10516339
Si       0.71578091       3.16525590       2.83514781
La       3.34260315       1.77838284      -1.79225974
6
Lattice="4.424278736114502 0.0 2.5465571880340576 1.4712041033874355 4.170276040588436 2.546374559402466 0.0 0.0 5.102458477020264" Properties=species:S:1:pos:R:3 pbc="T T T"
Cu       3.81639965       1.48237037       3.54358934
La       3.06691987       4.08136234       4.83399505
Cu       1.57579852       1.48260415       4.83789686
Cu       4.54248187       3.53991128       7.38366465
Cu       3.81643045       1.48196807       6.12763946
Pd       1.59209519       3.03972471       2.28341346
10
Lattice="4.61967658996582 0.0 -0.0014480144018307328 0.0024461699229311852 4.6187980849973975 0.0036365364212542772 0.0 0.0 12.194860458374023" Properties=species:S:1:pos:R:3 pbc="T T T"
Ag       3.22411363       3.20330570       0.42490067
Ag       3.22624030       0.89506816       4.87569240
Ag       3.23105499       0.89269684       9.17219554
Ba       0.91709574       3.20567440       3.51064854
In       3.22330835       0.89511902       2.00834657
Ag       0.92140902       3.20409830       8.32426073
In       0.91260793       3.20369030      10.95637328
Sn       0.92209195       0.89643125       6.65854110
Ag       0.91357590       0.89479740       0.42326493
In       3.22934701       3.20382327       6.64214211
18
Lattice="6.885275363922119 0.0 0.1901846081018448 -1.915545199980784 5.61754860539093 -3.7898142337799072 0.0 0.0 4.969448566436768" Properties=species:S:1:pos:R:3 pbc="T T T"
Si       4.37522385       2.99734498       2.20781459
Si       0.30486863       1.70527153       0.26731841
Sr      -0.81300345       5.60329380      -0.38477489
O        0.08404817       0.28391290       0.60382035
Sr       3.05221095       0.27859208       0.64688403
O        2.13325787       2.43118025      -0.39556178
H        3.08499534       3.89212957      -2.42255427
H        2.70510338       1.79796642       3.27655232
O        5.58254420       2.22743197      -0.21662882
O       -0.55128691       3.93815959       1.82064014
H        2.99895175       4.97040040      -0.43365475
Ce       4.43984620       3.87243307      -1.02717584
O        3.54527306       3.80048371       1.20719427
O       -0.07457144       4.72637318      -1.07229184
O        5.02546322       1.87716992       2.39607270
Ce       0.95463453       2.90934511       1.97774968
O        3.47092172       5.14560627      -1.12767506
O        0.74976739       1.78370944       1.38692274
13
Lattice="5.719390392303467 0.0 2.4555790424346924 2.8412216827394583 7.221023181362134 1.2269068956375122 0.0 0.0 7.8664445877075195" Properties=species:S:1:pos:R:3 pbc="T T T"
Li       6.42575075       7.08595172       4.89602547
Li       3.56744091       7.08604770       3.66883857
Tl       4.54316247       4.64095387       5.35767997
La       3.56769308       7.08808567       7.59903012
Li       5.00535528       3.47617117       8.21647945
Tl       5.47090033       2.30366999       3.20672007
Tl       2.95294347       1.45058113       9.05736583
Li       2.14702809       3.47535297       6.99045289
Tl       4.21092310       1.45531722       6.14007475
Tl       2.60429899       4.64319371       1.98586920
Tl       1.68729655       2.31204742       4.12708017
Tl       5.79924513       5.49187703      10.29274381
Tl       7.06074430       5.50307018       7.37315488
16
Lattice="5.8771467208862305 0.0 -1.8476742506027222 -2.798855140312981 5.041320481455011 0.1588161587715149 0.0 0.0 7.659509658813477" Properties=species:S:1:pos:R:3 pbc="T T T"
Na       2.09261000       1.51699800       3.43456288
O        3.29146555       3.33447971      -1.01012619
Pd       5.02999917       0.72869799       3.05152208
Bi       1.65861441       0.71346252      -0.23273492
Pd       0.16950568       3.91526408       5.26614010
O       -0.33754475       3.54865930       7.11991288
O       -0.73938638       4.55848527       2.09550918
O       -0.67098564       2.50961452       4.10252554
O        4.50821320       1.08137005       0.08599906
Pd       0.77957763       3.43430811       1.14938166
O        2.53939661       2.46275131       1.37687200
O        1.48028887       4.18094489       3.88631119
Mo       4.19070524       2.94388652       0.42560549
O        2.62511638       0.71354613       5.52082159
O        4.93186589       0.13298695       1.10626002
O       -0.33443642       1.16801530       6.65289052
12
Lattice="4.331297874450684 0.0 -0.003755981335416436 -2.1593547198628897 6.795291455056965 -0.6212409138679504 0.0 0.0 10.93634033203125" Properties=species:S:1:pos:R:3 pbc="T T T"
S        1.03607870       4.67520726       4.98186688
Ag      -1.11702722       3.55441538       4.80935207
Tl       1.02947602       1.07309017       5.54439763
Tl       1.04572437       1.34051812       0.25806754
S        1.04410288       5.70228834      10.29675361
S        3.20897844       3.31795711       1.86063670
Ag      -1.12066374       4.31386580      10.46562012
S        3.21060685       2.92415566       8.33333045
Eu       1.04354560       5.08518200       2.12633516
S        1.03942836       0.10206221       3.05362162
Eu       1.04328627       4.51213168       7.78165164
S        3.19901263       0.40277301       7.18248709
5
Lattice="4.826871395111084 0.0 -0.0023703163024038076 -0.0024452308169875623 4.798936697742753 -0.0022473318967968225 0.0 0.0 4.799773693084717" Properties=species:S:1:pos:R:3 pbc="T T T"
Tm       2.77164699       1.64362395       0.69321496
Er       0.35632569       4.04375506       0.69136782
Al       0.35758375       1.64488224       3.09175637
Tm       2.77074509       4.04324991       3.08999488
C        2.77044231       4.04404510       0.69186990
8
Lattice="10.679157257080078 0.0 34.93037033081055 17.778903617501552 14.267031226694467 28.02330780029297 0.0 0.0 39.659507751464844" Properties=species:S:1:pos:R:3 pbc="T T T"
Tm      19.70971437      13.80088450      42.83730163
Hf       8.48696374       3.14488087      42.47723744
Tm       9.66933541       7.57247055      40.19094982
Tl       9.60740492       3.36327303      24.58936744
Hf      18.14741280       7.52225128      57.04321383
Rb       0.19638011       0.10012355      38.08356013
S       26.08842448      12.51032028      69.43725056
Te      12.44793819       6.08109176      39.11602309
8
Lattice="5.162661075592041 0.0 1.5661680698394775 2.3461213808994335 4.599902126377637 1.5661334991455078 0.0 0.0 9.319167137145996" Properties=species:S:1:pos:R:3 pbc="T T T"
Hg       2.90394364       3.72272631       6.58884831
Nd       5.29879249       2.02855499       7.98480643
Nd       3.41804739       0.87457046       4.88416027
Nd       1.97343003       3.15355546       9.66084293
Nd       3.85458498       4.30671910       3.44076323
Cd       2.46340518       0.29069821       8.03835923
Hg       4.36910229       1.45871253       1.73749908
Ag       6.21764327       2.59062593       4.94626542
8
Lattice="4.122069358825684 0.0 0.014090943150222301 0.01857314316936608 4.119511220109849 0.014169266447424889 0.0 0.0 8.2630033493042" Properties=species:S:1:pos:R:3 pbc="T T T"
Dy       2.90555185       1.28103977       5.44729845
Pt       2.91426830       3.34071681       3.37543928
Pt       0.84472109       1.28199346       7.51430761
Pt       0.85353739       3.34110550       5.44577501
Pt       0.84442524       1.28066483       3.35895854
Pt       2.91519798       3.34109224       7.52765635
Er       2.90581757       1.28106813       1.31161474
Pt       0.85382258       3.34077918       1.30921903
4
Lattice="4.421308517456055 0.0 2.5460455417633057 1.4731153919379945 4.169449560340493 2.5453145503997803 0.0 0.0 5.101482391357422" Properties=species:S:1:pos:R:3 pbc="T T T"
Yb       4.69912822       0.79757751       7.00648549
Hg       1.75184204       1.84037897       1.90876787
Zr       3.22566748       2.88269104       4.45568559
Hg       4.69870694       3.92483846       7.00401264
10
Lattice="4.697597980499268 0.0 -1.1664162874221802 -1.7576687195833078 4.337369184547451 -1.3139147758483887 0.0 0.0 7.949089527130127" Properties=species:S:1:pos:R:3 pbc="T T T"
Ge       1.93358152       2.44689027      -1.04580238
Ge       3.78529944       2.19143371       4.59271087
Ge       1.00796867       1.07973476       1.53028689
Rh       3.24339772       0.61021910       0.13650372
Ge       1.07398471       4.02684862       4.49677340
Rh       0.55725695       0.36843957       7.02584951
Cd       3.38621547       0.07448171       2.86961357
Cd      -0.77617901       2.87721576       2.85401071
Rh       1.29399150       1.42572417       4.39934442
Rh      -0.28984276       2.96647879       0.07889771
9
Lattice="3.810849905014038 0.0 1.2607934474945068 1.8912347376872265 6.024416847526698 0.6232607960700989 0.0 0.0 6.34722375869751" Properties=species:S:1:pos:R:3 pbc="T T T"
Tm       3.43275534       5.01944129       4.95594061
Pd       1.53070890       2.98053728       4.33244199
Pd       4.07620430       2.99978809       3.04292279
Pd       0.89601272       1.01307558       6.24668003
Pd       2.17495479       1.01280295       2.41477980
Pd       2.17097090       5.01842257       2.39206437
Pd       2.79864415       2.99877943       6.87585182
Pd       4.69307983       5.01570143       7.51947801
Pd       3.44129551       1.03389397       4.95896123
15
Lattice="42.604061126708984 0.0 767.5731201171875 52.79898020869223 7.057984270805538 737.2003784179688 0.0 0.0 843.2009887695312" Properties=species:S:1:pos:R:3 pbc="T T T"
Rb      29.18797081       0.92124177    1102.69390322
Rb      39.12774433       3.90558714    1041.92057642
Rb      40.46289246       0.82225457    1055.40658817
Rb      67.11991360       5.13666095    1425.97916461
Rb      40.22354796       1.67000130     983.42513003
Mg      31.86032880       4.22300219     560.70789452
Rb      56.25194199       3.91300557     998.40351708
Pd      34.74365243       0.55320194    1098.27174566
Rb      37.92011882       0.57504262    1024.31811944
Rb      34.44290193       1.70012934     896.48624824
Sc      83.92703349       6.76820005    2013.16551910
Rb      44.75003271       1.29970768     861.04095252
Rb      62.68353062       5.46679005    1014.42820323
Rb      74.76230141       7.03968516    1766.76385690
Be      44.73870835       1.96265031    1147.56193409
18
Lattice="8.71782398223877 0.0 2.781925678253174 1.027872917930992 10.081712510918535 2.733445882797241 0.0 0.0 12.06568431854248" Properties=species:S:1:pos:R:3 pbc="T T T"
Se       2.10359089       4.54618568       3.84492005
I        1.69484548       6.13034262       9.23020548
I        6.88958785       3.89638419      11.67191813
I        5.96035962       1.95985574       6.87641337
I        6.33918804      10.02892677       5.05533581
Hg       4.44608742       9.89120142       9.12138495
Se       7.90125923       6.42269770      11.86932482
I        1.21362614       1.22579099       6.07450126
Au       3.87835625       9.74438661       4.41348001
Hg       7.73274319       0.59588624       5.42960864
Hg       5.07229443       1.17150709      11.72886648
I        6.81337502       7.99966287      13.67728561
I        2.28108350       3.85315213      13.31539159
I        3.13968722       1.88992449      10.07064662
I        6.05803789       7.80622111       9.01257510
I        8.45047562       5.47514791       7.02635847
I        1.51798858       9.44012676       3.57704349
I        3.86474812       5.64261143       5.47272086
8
Lattice="4.124316692352295 0.0 1.5786511898040771 4.120154378769994 5.842847357580715 1.571010947227478 0.0 0.0 6.2015204429626465" Properties=species:S:1:pos:R:3 pbc="T T T"
Al       4.21193863       3.49884677       2.25976837
Yb       0.57805147       0.57697758       5.60919537
Al       7.49330678       5.02517165       6.05396211
Os       2.63676572       3.49851453       6.39687408
Al       6.03192294       5.02716370       3.69335911
Al       3.36745001       1.97235908       4.47559730
Al       5.18652398       3.49555013       5.90890464
Al       1.90678121       1.97004872       2.11540810
11
Lattice="8.14210033416748 0.0 3.9711477756500244 3.4271040410484366 8.00961505094916 3.2230679988861084 0.0 0.0 10.521227836608887" Properties=species:S:1:pos:R:3 pbc="T T T"
Rb       5.10563105       1.90814257      12.67901963
Hg       7.40685626       7.67571479       7.72313765
K        6.40706698       5.69101388       4.68936750
K        0.86941986       1.00516224       5.94202221
Hg       3.42190065       3.81613284       5.65650305
K        1.88150966       4.06858047       8.95423689
K        4.82654528       1.08434431       7.81597416
K       10.42424892       5.67250182       6.68926928
Rb       6.44259018       5.11662011       9.92430062
Hg       5.18133687       8.00249591      12.47030404
Rb       8.42526954       1.31737423       5.74455937
10
Lattice="5.25717830657959 0.0 0.0001326315541518852 -0.00023153643734983388 5.2586555429984765 -0.0004898236365988851 0.0 0.0 10.912105560302734" Properties=species:S:1:pos:R:3 pbc="T T T"
Hg       1.97647483       1.09112610       7.27699575
Rb       1.97770531       3.72212921       4.51586746
Rb       4.60414112       1.09208672      10.02836269
Au       1.97716492       1.09259167       1.81416621
Pb       4.60411962       3.72246804       7.27323903
Au       4.60511392       3.72174870       1.81154011
Pb       4.60536659       1.09325805       3.05030892
Au       4.60568786       1.09122084       5.95788699
Au       1.97625368       3.72262225       8.58945542
Pb       1.97575640       3.72250064       0.58425618
12
Lattice="8.351219177246094 0.0 -1.3776214122772217 -0.6769389312399893 7.822954160911215 -5.259639263153076 0.0 0.0 8.35304069519043" Properties=species:S:1:pos:R:3 pbc="T T T"
Au       4.17010311       6.53559515       3.14227814
Cs       5.86062976       6.45865962      -0.02430110
Cs       2.63217505       0.74257324       6.60599221
Bi       7.53920589       2.18154795      -0.69063024
Bi       2.46715863       6.79198256      -2.80962374
Cs       2.92220424       3.23465314       2.67553927
Bi       8.04588651       1.22633346       2.32678364
Au       1.34607378       3.80306502      -0.41295431
Au       3.53308774       4.30206860      -2.05114402
Cs       7.02003570       4.71970416      -4.01905352
Au       0.85243950       0.09742554       1.30075285
Au       5.45518794       0.47065124       2.23257093
12
Lattice="5.594692707061768 0.0 -0.00825229100883007 3.450362231309667 4.165029170869022 -0.007387141697108746 0.0 0.0 9.364533424377441" Properties=species:S:1:pos:R:3 pbc="T T T"
Na       3.86895138       1.61065503       3.08046508
Hg       7.54205706       3.61545572       7.98989928
Zn       2.81295996       1.52910410       0.12970609
Na       1.43835823       0.56725256       6.88353688
O        8.66467016       3.85443053       2.75608678
Zn       4.27353083       1.84534732       6.11263004
Zn       5.09904310       2.07117814       8.70672382
O        2.03414145       0.84967431       1.81763634
Zn       3.93071237       3.99242982       0.90645691
Zn       1.18795252       0.43241254       3.81769442
Hg       6.98466053       3.07741272       4.93831458
Na       6.71318277       3.04593795       1.87248357
12
Lattice="120.43822479248047 0.0 590.4983520507812 149.21842258442211 69.96978020684874 600.3035888671875 0.0 0.0 594.1383666992188" Properties=species:S:1:pos:R:3 pbc="T T T"
Ca     107.09362896      15.10441662     838.24973924
Hg     126.40828243      41.16376731     921.92670948
Hg     225.72668241      52.55761774    1353.49059719
K      114.53517440      44.74387431     795.22105226
Rb     118.56723888      19.83597503     909.11228699
Ba     117.80488699      50.12754522     760.89962709
Rb     121.21656491       3.61718243     668.06479719
Ca     188.14061795      60.87188659    1266.40835984
Sr     222.76752958      60.58518393    1279.32056502
Sc     135.56420535      17.25370133    1087.61220911
S      167.17515544      45.18378951     856.44814419
Rb     136.18242074      14.62271173     845.12736118
12
Lattice="4.48982572555542 0.0 -1.9885600805282593 -0.9368209180128131 4.482077421096071 -2.087235689163208 0.0 0.0 6.044577121734619" Properties=species:S:1:pos:R:3 pbc="T T T"
O        1.80293777       0.97517029       1.19014609
Ga       3.06864595       2.92248764       1.06751782
Os       1.71735257       4.04537343      -1.97302020
Ga       1.29506182       0.67480738       3.11151409
O        3.42737047       3.72101327      -1.06158440
O        1.28696801       3.20654195       0.15182565
Os      -0.06786759       1.79898112       0.05608357
O        2.51514557       2.61103255       3.02317739
O        0.36515008       2.12775584       4.22956966
O        3.92129458       1.46940092      -0.06501330
O        3.11590013       0.34891824       3.98186307
O        0.03663221       4.38161574       3.14255248
4
Lattice="4.144794464111328 0.0 1.128403663635254 1.9060213216837947 3.6827808943064437 1.1295970678329468 0.0 0.0 8.141566276550293" Properties=species:S:1:pos:R:3 pbc="T T T"
Ho       5.03341156       3.28014839       5.00648594
La       3.98836599       2.64550675       8.83764969
Te       2.53246130       1.75884943       6.03307190
Te       1.44531262       1.09874706       1.87195453
15
Lattice="56.086490631103516 0.0 1200.2310791015625 28.916390690071694 28.80023105593857 1088.227294921875 0.0 0.0 1107.2490234375" Properties=species:S:1:pos:R:3 pbc="T T T"
Sm      24.47566474      21.11009673    1909.16240052
Rb      26.16658769       9.89827954     922.92726258
Zn      27.13124452       6.84143110    1796.48095254
O       49.81117787      16.95711465    2015.85771641
Rb      40.19538433       6.85970073    1703.89087392
Rb      70.75465052      22.63285007    2641.82474683
Mg      55.51506031       6.13737090    1508.27962485
Rb      14.11750906       3.41033982    1185.71380424
Rb      28.92072814      27.64786242    1923.69070272
Rb      47.48977902      27.61665928    2177.46091272
Co      61.04954185      12.99248867    1714.64329107
Rb      55.03382552       4.16101075    2051.41851935
Se      74.07168970      23.26917300    2099.19777867
Rb      65.75223650      12.96110872    2086.82735450
Rb      74.95574735      25.79349269    2325.31210814
12
Lattice="6.842911720275879 0.0 2.070557117462158 3.423631016559298 6.198150336617797 1.0365732908248901 0.0 0.0 8.241674423217773" Properties=species:S:1:pos:R:3 pbc="T T T"
Br       1.32955401       1.41587555       3.87041709
Br       4.75124225       3.50019788       4.90585231
Pr       9.77933216       5.59127511       8.92151688
Pr       6.56746629       5.59422988       2.96536587
Pr       6.56454852       1.40955058       2.96413790
Br       8.17352146       5.58774586       5.94167496
Ir       8.17448473       3.50120053      10.06579667
Pr       2.93684973       1.40872331       6.85109486
Pr       3.18899919       3.50061276       1.94416455
Pr       6.31507779       3.49934410       7.87068196
Ru       4.75270526       5.56572548       9.02801145
Ru       4.75104499       1.43589718       9.02813864
7
Lattice="3.623325824737549 0.0 0.8162242770195007 1.4846991145443553 6.05094636100981 1.8943239450454712 0.0 0.0 8.515562057495117" Properties=species:S:1:pos:R:3 pbc="T T T"
Pd       1.92744906       2.40802077       2.69137471
Sm       1.64070632       5.97020043       3.98583329
Pd       1.00335233       3.52358477       6.82995002
Er       3.27680272       2.96405562       5.16705276
Sm       2.77494303       6.00659869       7.42575397
Er       4.00625468       4.24975174      10.42648874
Er       2.54847945       1.68032512       8.42146593
4
Lattice="4.183156967163086 0.0 0.0023700015153735876 0.005152174509169834 3.814040757246122 0.003969099838286638 0.0 0.0 8.679215431213379" Properties=species:S:1:pos:R:3 pbc="T T T"
K        0.60994063       1.63071729       3.11733129
Cd       2.70952399       1.62090280       0.11640259
Cd       0.61082726       1.63214234       6.66843870
Hg       2.70737845       3.53884297       5.42514990
11
Lattice="5.2057037353515625 0.0 -0.29692405462265015 0.5226937450157713 5.285113714891231 0.11670612543821335 0.0 0.0 5.374199390411377" Properties=species:S:1:pos:R:3 pbc="T T T"
Ti       2.71244028       1.28648358       3.86375768
Ti       5.28421259       2.33453874       3.82223729
H        4.48696394       4.03726834       3.73185395
Ti       5.38660529       5.16991282       2.54405899
Ti       2.65272741       3.85202650       4.06528946
Ti       1.38190608       2.73619796       1.70559921
Cd       2.21933409       0.00386597       1.18145370
Ti       3.95537507       2.41288056       1.13200170
Ti       5.29818754       4.98588254       5.16811788
H        0.91348920       0.35893799       4.07219076
H        5.36931462       3.12502353       0.12339046
14
Lattice="13.817191123962402 0.0 27.636768341064453 10.814560186392784 7.338642354063902 28.18455696105957 0.0 0.0 38.79568099975586" Properties=species:S:1:pos:R:3 pbc="T T T"
Zr      13.39086073       5.58867579      69.63946409
Zr       7.97670238       3.95934582      39.72845533
Zr      10.05226720       0.45419171      40.39911557
Zr       4.44180472       1.11731207      38.27171009
H       22.24955680       6.89463462      77.59931673
Zr      16.22651129       4.11429604      65.42143740
Zr      22.53126598       6.35804010      59.53142427
H       10.26349536       0.61796931      27.71747830
Rb      15.60371892       1.79002960      34.16983048
H        4.79428472       3.12463707      39.27765930
Mn      15.10529714       4.56443855      56.78915080
K       11.37546423       2.94279553      35.52177422
S       14.90447928       4.02378349      36.07050269
H       18.49013129       5.33682673      59.97676324
8
Lattice="4.321371078491211 0.0 0.8206490874290466 2.07915329230974 3.789199124714707 0.8189811706542969 0.0 0.0 11.769549369812012" Properties=species:S:1:pos:R:3 pbc="T T T"
Au       4.05113769       0.85083161      11.05585715
Pb       3.70609449       3.20343989       1.08706550
Au       3.07978225       2.83302735       4.38104066
Al       3.26842739       0.38551615       3.40743619
Bi       2.14626803       2.28078754       9.29934641
Pb       4.90992766       1.35759055       6.54936274
Au       4.56323678       3.71195710       8.35649002
Au       1.21551765       1.72897324       2.43536992
9
Lattice="8.131548881530762 0.0 -2.1761105060577393 0.43372787659015394 7.567853030519031 -2.206296920776367 0.0 0.0 8.805129051208496" Properties=species:S:1:pos:R:3 pbc="T T T"
Ba       2.98975092       4.54814353      -0.01219988
Ba       2.91516887       4.56051122       4.30041372
Ba       5.40942810       1.50720556       2.17597299
Ba       7.16576154       5.17555364       4.40726543
Hg       4.36628015       6.82281861      -2.26575380
Ba       5.32908674       1.52097070       6.49866106
Ba       1.15112335       0.90715702       2.06934365
Ba       1.14504678       0.94602617       6.60864099
Ba       7.16427845       5.12080435      -0.12224893
20
Lattice="34.848262786865234 0.0 184.2532196044922 30.897871966835734 8.273782700038666 212.99777221679688 0.0 0.0 226.2427520751953" Properties=species:S:1:pos:R:3 pbc="T T T"
Rb      11.97226699       2.16394457     184.14341545
Rb      13.34449312       3.43077276     294.55884597
Rb       7.91356669       0.89483159     223.90132951
Se      52.01453147       7.86944370     443.55578317
Rb      42.23478216       4.91317147     452.44988654
Br      53.33471710       5.99029147     481.84640959
I       37.18187369       6.94625244     411.86781047
Er      27.91533724       5.36369254     232.50998092
Ag      22.19123535       1.40508925     200.12567801
Nb      32.51426462       2.60652855     365.85119899
Rb      49.25826507       6.15706545     373.98059495
Br      12.46593858       1.21322264     168.12176170
Br      11.25288995       1.57222878     163.86516597
I       34.44908836       1.77531062     406.96598346
Rb      28.88585054       1.14658754     316.00080216
Rb      16.85481624       1.47095897     198.12397117
Te      55.27935921       6.29843992     485.64529031
Rb      50.38211506       6.70766412     491.06320090
Rb      30.13438121       2.07049918     180.32961735
Rb      38.44661770       3.57910542     406.80948854
20
Lattice="5.386712551116943 0.0 -1.0454530715942383 -1.1248456540481582 5.620399318073096 -1.3776897192001343 0.0 0.0 8.280620574951172" Properties=species:S:1:pos:R:3 pbc="T T T"
Mn      -0.04089231       3.28497876       4.01538958
Co       2.85611942       3.78614429      -1.16476893
B       -0.25944107       2.05687434       2.07871529
Co       0.69459755       4.36787142       6.26722914
Dy       3.10646190       1.20012665      -0.59829414
Mn       2.58536214       3.98784727       3.16160404
Mn       1.60539515       4.86227962       0.30570518
B        4.37481909       5.03331920       2.30640422
Mn       0.23207812       2.64744836      -0.20955726
Co       0.72451839       0.85457738       3.38685167
Dy       3.56599362       1.21280823       3.47299425
Mn      -0.80474209       5.46391457      -0.33617865
Co       0.94494699       5.48534866       4.04986405
Co       4.07021968       3.19907389       5.16037574
Co       1.67990842       2.09029447       1.58238584
Mn       1.41048922       2.24014652       5.50856266
Co       3.59900939       3.43226403       1.08976758
Co       0.38985090       4.17173852       1.88499413
B        2.56768006       4.49518856       5.21075487
Co       5.28063915       0.12282070       5.67794474
6
Lattice="26.687307357788086 0.0 646.3648681640625 39.48113983789881 7.839815403284645 622.182861328125 0.0 0.0 646.3269653320312" Properties=species:S:1:pos:R:3 pbc="T T T"
O       16.38342800       1.04562536     831.06596622
Ce      27.29436128       1.48364400     730.56235818
Rb      18.18713399       2.42252878     412.56365951
La      43.58317810       5.81950038     927.85253781
Rb      20.28149870       2.87269204     812.61921075
Rb      51.67844726       7.80859206     994.56136935
8
Lattice="5.269546985626221 0.0 1.583223819732666 2.388463725123557 4.69871546820519 1.582945704460144 0.0 0.0 9.52450942993164" Properties=species:S:1:pos:R:3 pbc="T T T"
Pr       3.57985285       1.16464063       8.39074197
Pr       5.50014076       2.34201106      11.55525598
Hg       2.63011329       0.58095976       2.03404914
La       2.14050764       3.51372180       3.63188682
In       3.10296189       4.10520116       9.96267079
In       4.53461572       1.74936957       5.22510761
Pr       4.05319777       4.68730757       6.80500044
Hg       6.44953423       2.92480840       8.39203223
4
Lattice="4.208681106567383 0.0 2.4304161071777344 1.4031113099945 3.9678500227548277 2.4301540851593018 0.0 0.0 4.860446453094482" Properties=species:S:1:pos:R:3 pbc="T T T"
Dy       4.36378086       2.71261411       4.50019644
Y        1.55728573       0.72907182       4.49781475
Rh       2.96065852       1.72105555       6.92887297
Rh       1.55748295       3.70510000       4.49870953
4
Lattice="3.4028828144073486 0.0 0.00017266039503738284 0.00022167044109292503 3.401753656794304 1.282796438317746e-05 0.0 0.0 6.95250940322876" Properties=species:S:1:pos:R:3 pbc="T T T"
Lu       1.35570430       0.42351828       1.53096998
Lu       1.35287363       0.42192324       5.19505289
Ir       3.05588254       2.12365987       6.83825528
Ga       3.05586064       2.12372496       3.36360100
7
Lattice="4.204629898071289 0.0 -0.0024466924369335175 -2.104713124234308 6.32206288630153 -1.63895845413208 0.0 0.0 6.839933395385742" Properties=species:S:1:pos:R:3 pbc="T T T"
Sb       0.45423696       0.86021492       2.10755642
Y       -1.64596509       5.85161883       4.26301313
Er       2.55800389       2.39485397       3.82192440
Y        2.55658811       2.54150816       0.57248222
Sb       0.45852441       3.85706514       5.55449743
C        2.55686463       4.21342035       2.37740965
Er       0.45241216       5.08986283       1.58795115
6
Lattice="3.709683895111084 0.0 -0.8108080625534058 -0.004394184033620805 5.466345451402665 -0.004746781196445227 0.0 0.0 8.923344612121582" Properties=species:S:1:pos:R:3 pbc="T T T"
Tb       0.45637982       4.49712115       0.96187931
Tb       1.04346478       1.76331585       3.65585960
La       3.61867392       1.76366122       6.56380765
Cd       2.34779122       1.76736057       0.71910612
La       1.59064580       4.49903143       6.16449549
Cd       2.86116589       4.49310282       3.08383149
6
Lattice="3.1095635890960693 0.0 -0.6799983978271484 -0.4264666864017244 5.152870179805164 -1.957916259765625 0.0 0.0 7.377073287963867" Properties=species:S:1:pos:R:3 pbc="T T T"
Pr       0.25593233       3.34558743      -0.43674207
V        1.43505261       1.09762531       4.90084882
Ru       0.26947895       0.37489174       7.00638861
V        1.20107348       3.67590006       3.84676004
Ru       2.36835643       4.39057586       1.74511983
Pr       2.38341309       1.42403249       1.81312235
10
Lattice="7.00615119934082 0.0 -4.22237491607666 -3.3637899029860847 7.092702432637879 -1.955283761024475 0.0 0.0 8.270917892456055" Properties=species:S:1:pos:R:3 pbc="T T T"
Rb      -0.48764176       6.59319651       2.91892876
Rb       3.76258912       3.65773865       3.36455464
H       -1.04477343       5.16455135       5.58101978
K        1.36646953       4.96857765      -1.36156558
Br       3.66343020       6.43751714      -3.15027561
Rb       1.03100913       0.69469974      -0.04988119
Rb      -0.57032023       2.44955207       4.29035578
Br       4.95961563       0.67044152       2.51151399
Br       0.91246485       3.69746015       1.55886546
H        1.98225186       2.33716565       5.71358531
4
Lattice="5.052028656005859 0.0 0.011667766608297825 0.011142248913033056 5.103911158571602 0.009678773581981659 0.0 0.0 5.106060028076172" Properties=species:S:1:pos:R:3 pbc="T T T"
Sm       1.27835509       5.07716350       4.06595710
Sm       1.27265361       2.52528945       1.50813990
Y        3.80587472       5.07970402       1.52106522
Er       3.79923231       2.52739022       4.06925574
18
Lattice="7.1188063621521 0.0 0.002234974643215537 -3.5494424226357064 6.173492135529238 -0.003300006501376629 0.0 0.0 13.965752601623535" Properties=species:S:1:pos:R:3 pbc="T T T"
Rb      -0.17198900       3.97409328       8.09872858
Rb      -0.17158354       3.97490354       1.11650900
P        3.39240118       6.03208062       4.61127611
P        3.38307384       1.91696643      11.58477156
Sr       3.39115893       6.03164568      11.58651636
Cl       4.31711830       4.28537244       3.17653714
Sr       3.38262031       1.91851245       4.60917870
Cl       2.45752554       4.28585595       6.04506029
Cl       1.40116202       1.84383410      10.15038114
Cl      -1.75361772       6.10448179       6.04001810
Cl       2.45739878       3.67067724      13.02378745
Cl       4.31606148       3.66680032      10.14690331
Cl       5.36700733       1.84389408      13.02815045
Cl       5.89020799       1.53909751       6.04569325
Cl       0.87419569       1.53617980       3.17139796
Cl       2.32504187       0.23767616      13.02890450
Cl       1.41184371       6.10776150       3.17473842
Cl       4.43599898       0.23293115      10.14550957
7
Lattice="11.112972259521484 0.0 290.98236083984375 9.792432758233472 5.316970460871799 292.1703796386719 0.0 0.0 291.1917724609375" Properties=species:S:1:pos:R:3 pbc="T T T"
Rb       8.70593931       2.42700525     282.83846723
Rb       9.59972424       1.99905152     522.45686020
Ca      19.45739156       5.24876440     752.15791607
Rb      10.96698765       3.84101881     343.47794699
Sc       2.72286715       0.24106044     170.35651986
Sb       9.29924518       1.47353548     499.44536355
Hg      16.20862284       4.17835544     618.00170503
5
Lattice="3.4732160568237305 0.0 0.014326942153275013 -1.7189832124659075 3.017026599514615 0.02870384231209755 0.0 0.0 9.822681427001953" Properties=species:S:1:pos:R:3 pbc="T T T"
Sc      -1.15311861       2.15684485       7.21828770
Sc       0.57408080       1.15558400       4.71800735
Cl      -1.15354248       2.16764141       3.06178771
C        2.30615178       0.14740049       5.95779026
Cl       0.57363005       1.14269935       8.87134812
11
Lattice="6.5400590896606445 0.0 2.099703073501587 1.5601755366686865 6.418164457449188 2.0644137859344482 0.0 0.0 7.651045322418213" Properties=species:S:1:pos:R:3 pbc="T T T"
Rb       5.22224145       4.28995079       9.34963365
Bi       2.36254016       5.10232953       6.63572610
Bi       2.86857205       2.40653643       3.46766639
Rb       7.13060973       5.77376907       4.94735981
Pd       1.03775728       2.77848448       5.45032166
Bi       2.03960103       1.73610070       7.85521858
Pd       3.63136207       6.31151879       4.59555659
Bi       5.31608005       1.30380528       6.64079683
Pd       2.80826999       0.48378640       5.39668882
Pd       6.79970377       2.25187718       4.63588375
Pd       4.32033716       3.58727966       5.50856908
5
Lattice="4.990045070648193 0.0 -0.009078381583094597 -0.010884126261021965 6.1571573378223565 -0.008587240241467953 0.0 0.0 6.16349983215332" Properties=species:S:1:pos:R:3 pbc="T T T"
La       3.30561678       5.11245970       0.87683154
Sr       0.80735444       5.10630335       3.96219688
Ca       3.30918713       2.02663764       3.96299368
Sr       0.81409193       2.03115150       0.88437837
Fe       0.80853230       5.11263732       0.87959046
3
Lattice="111.3938980102539 0.0 498.7201843261719 30.62302796535482 17.437791845366007 439.596923828125 0.0 0.0 399.4642028808594" Properties=species:S:1:pos:R:3 pbc="T T T"
Au      53.96283266      13.58346168     702.87478622
O       42.15872488       7.63775272     631.20239959
I      110.96157724       6.43750771     955.90184448
4
Lattice="3.1010100841522217 0.0 0.006811769213527441 0.006048844801905919 3.100244581655638 0.005522115156054497 0.0 0.0 6.626650333404541" Properties=species:S:1:pos:R:3 pbc="T T T"
Dy       1.09083008       1.27157776       5.36810618
Co       2.64464758       2.82168555       0.69839288
Ti       1.09022204       1.27047069       2.05601459
Co       2.64375508       2.82077103       3.42575550
6
Lattice="4.316030502319336 0.0 0.0030817321967333555 0.0020563128878182146 4.605578917166309 -1.485695719718933 0.0 0.0 7.867136478424072" Properties=species:S:1:pos:R:3 pbc="T T T"
Er       0.01620217       4.42569408       5.50722833
Mg       0.01588890       2.85581747       0.65241665
Tl       2.17196404       2.08263439       6.13003347
Tl       2.17184489       0.55220419       1.39887373
Er       0.01304436       1.28596391       3.66922163
Tl       2.17315206       3.62970618       3.05116155
4
Lattice="3.8229479789733887 0.0 -0.0017861766973510385 -0.0026592533460178805 3.8218207644409894 -0.00047991034807637334 0.0 0.0 7.7823333740234375" Properties=species:S:1:pos:R:3 pbc="T T T"
La       1.05511403       2.01515816       6.57189405
Er       1.05476344       2.01616047       2.67965634
In       2.96810658       0.10517131       0.90154557
In       2.96869933       0.10441946       4.45991283
15
Lattice="5.521807670593262 0.0 2.988248348236084 1.9573804688090484 5.16062035962673 2.9901230335235596 0.0 0.0 6.60715913772583" Properties=species:S:1:pos:R:3 pbc="T T T"
Na       6.03643379       3.63976233       5.49449965
Na       3.27683696       3.63959715       4.00085155
Na       2.29676262       1.05925668       2.50440693
Sc       6.03826040       3.64018743       8.79815501
O        4.97386360       4.81221084       7.35133835
Ir       3.27713744       3.64075033       7.30564929
Sc       5.05789044       1.05926583       7.30229596
Sc       2.29742006       1.06058303       5.81063553
O        5.26838468       5.01463547      10.22396113
O        1.57932129       2.46798700       7.25764297
O        2.31091295       4.81048122       5.90875645
O        4.02920404       2.32102964       5.90963246
O        4.24250154       2.46794763       8.69950748
O        1.28339761       2.26437936       4.38378426
O        2.52349929       4.95826217       8.69910154
12
Lattice="7.0019917488098145 0.0 -1.0396974086761475 -3.7329233687713668 5.9225889441069075 -1.0394566059112549 0.0 0.0 8.034339904785156" Properties=species:S:1:pos:R:3 pbc="T T T"
Ho      -2.50913749       5.53072844      -0.93193696
Rb       2.85992086       2.56782916       3.08500734
Tb       1.07151300       3.55616087      -0.93400820
Rb      -0.71485468       4.53974560       3.08543179
Rb       6.43296289       0.59690536       3.08519571
Tb       4.64711320       1.58269965      -0.93271055
S        1.96583113       5.14874878       4.99449898
S        0.02042789       5.91054588       0.13601845
S        3.61962514       3.94871187       0.13050146
S       -1.48312742       3.18702668       6.03230566
S        0.19812204       1.94724995       1.17681417
S        2.09720982       1.18892889       6.03816913
15
Lattice="6.087059020996094 0.0 -0.0019406115170568228 -3.0508796414649737 5.26728518564486 -4.452966823009774e-05 0.0 0.0 7.453426361083984" Properties=species:S:1:pos:R:3 pbc="T T T"
Y        4.73544901       2.19350971       2.37131825
Y        1.68824310       3.94805837       7.27760352
Ba       1.68845701       3.94777675       3.47338249
Mo       1.69665145       0.43588492       4.82606985
O        1.69191242       2.04049794       5.93797458
O        0.16598178       3.07084518       1.09721615
O        3.21405404       3.06921513       1.09650271
O        0.03496502       4.90263815       5.93809139
Ba       1.69376837       0.43718336       1.09940443
O       -2.74485579       4.90403148       5.93866104
O        0.30439850       1.23938053       3.71365389
Ba       4.73676225       2.19323311       6.18530794
O        3.08191319       1.23885552       3.71154500
O        4.73645245       0.43983376       1.09611663
O       -1.35392911       4.10340847       3.71336006
8
Lattice="172.84165954589844 0.0 700.92578125 12.403130688052894 14.075843528074115 845.255859375 0.0 0.0 814.1253051757812" Properties=species:S:1:pos:R:3 pbc="T T T"
Li     138.03205534      11.43961133    1402.33662170
Rh     177.89355202       7.46623820    1881.23032710
Bi      39.91140973       6.06849356     882.59549949
Rb       2.95192796       0.74511501     171.22758795
Ni     117.82462479       0.35735414     656.52832849
Br      93.72646374      12.54490613    1091.48922924
Ag     147.86333690       0.74142976     780.51811233
Er      11.06798656       0.13932698     538.67201060
4
Lattice="4.629466533660889 0.0 0.0020643635652959347 0.0010045696454177317 5.235870264958265 0.00303820357657969 0.0 0.0 5.23313570022583" Properties=species:S:1:pos:R:3 pbc="T T T"
Eu       4.17268824       1.49370274       3.38083432
Nd       4.17162748       4.10947671       0.76423081
Pb       1.85778506       1.49044258       0.76267796
Pb       1.85794566       4.11086703       3.37902952
3
Lattice="7.656030654907227 0.0 26.278888702392578 4.80036713807516 1.7917264016952308 43.716312408447266 0.0 0.0 66.00566101074219" Properties=species:S:1:pos:R:3 pbc="T T T"
Rb       8.78797717       1.03284910     108.83770564
Rb       0.59090062       0.11761336      56.44457677
Rb       4.84717033       0.82079845      31.54669213
15
Lattice="26.31287956237793 0.0 218.540283203125 29.172383837049438 15.411827282054098 227.42649841308594 0.0 0.0 219.71055603027344" Properties=species:S:1:pos:R:3 pbc="T T T"
Rh      49.81129764      12.71220081     462.73187707
Rb      26.21572459       6.74408543     383.66117575
Rb      12.87170888       6.14960369     134.30807279
Rb      10.48230711       3.18111976     101.76115307
Rb      43.22959646      11.00119401     533.79532025
Rb      13.24917322       2.99140754     166.63187856
Rb      50.44231293      15.31862445     532.84879736
Rb      20.98157329       5.07315143     333.91342784
Rb      22.03067899       0.87043793     289.65494842
Rb      40.22360268      15.39347332     409.36424077
Rb      30.44478668       3.34543200     361.93819831
Rb      18.64764700       7.30626035     244.03267143
Rb      16.47322223       5.90795152     299.02843735
Br      27.48946478       2.18268399     377.90371303
Sm      50.59816495      13.14758461     456.83051687
4
Lattice="7.521829605102539 0.0 19.380983352661133 8.648625575776805 6.659924415768322 20.045856475830078 0.0 0.0 18.79198455810547" Properties=species:S:1:pos:R:3 pbc="T T T"
Mg       0.21669085       0.06674121      10.82782626
Tl       8.85480771       2.61718044      31.55582205
Au       8.85883603       5.07127284      22.78257626
Hg       8.87459280       2.01659792      22.48528677
4
Lattice="9.207513809204102 0.0 28.946378707885742 6.569084512924859 6.773318484557531 29.358312606811523 0.0 0.0 31.802568435668945" Properties=species:S:1:pos:R:3 pbc="T T T"
Rb       9.68028433       1.60779330      45.73003934
Rb       8.27966058       5.01883923      52.81444404
Ni       1.45922936       0.58913572      31.03877190
Rb       6.42396582       3.34153714      55.04595515
4
Lattice="7.682550430297852 0.0 15.153100967407227 5.520851585408764 6.086365723915502 14.716586112976074 0.0 0.0 16.178346633911133" Properties=species:S:1:pos:R:3 pbc="T T T"
Y        7.42123171       5.21152567      25.94498459
Cd       7.91976993       3.82235788      18.55469290
Cd       1.73986943       0.38117551      18.48796318
Cd       8.79225864       2.37481767      27.06258787
4
Lattice="511.1339416503906 0.0 497.5524597167969 348.56190334835077 155.01542566463556 552.2053833007812 0.0 0.0 758.4819946289062" Properties=species:S:1:pos:R:3 pbc="T T T"
Ho     483.43741401     139.63806940    1161.18909288
Sb     604.24539345     113.22109960    1016.35015310
La     548.44853696     150.72270769    1315.77485684
Nd     271.98171453      63.55104351     989.96429615
12
Lattice="17.049423217773438 0.0 23.925268173217773 18.47199682167684 10.949277409481303 50.57621765136719 0.0 0.0 60.273780822753906" Properties=species:S:1:pos:R:3 pbc="T T T"
Tb      26.59646848       9.13626631      88.56106143
Rb      27.19834955       6.18803397      69.42159478
Br      18.73963973       5.02126895      67.00549401
Tb      21.13343913       8.99914921     105.23844514
Rb      23.38001254       5.18050034     103.83361615
Rb       1.42788879       0.65630498      14.44232609
Rb      25.33031471       8.83566595      62.31066441
Sm      15.85581112       7.04850153      75.53042646
K       33.34804021      10.94116525     128.07776000
Rb      10.07762636       2.71871342      68.43367014
Rb      15.33472089       3.79494021      35.21168057
Ca       3.37888679       0.37184602      40.45391647
7
Lattice="4.327113151550293 0.0 -0.0015610972186550498 -2.1631450855142598 4.637139591040287 -2.1052968502044678 0.0 0.0 6.876607894897461" Properties=species:S:1:pos:R:3 pbc="T T T"
Tb      -0.52070851       1.45649223       1.51564354
Al      -0.51964940       3.58777176      -0.94163120
Tb       1.64583042       3.32863840       3.70524062
Pd      -0.51904755       1.33901935       4.61432809
Pd       1.64520661       3.44445760       0.60587793
Al       1.64241918       0.07574356       3.66107485
Al       1.64293651       1.20003382       6.16132223
20
Lattice="5.386554718017578 0.0 1.7470688819885254 2.8043141293522913 8.087220004296698 1.0921825170516968 0.0 0.0 8.499022483825684" Properties=species:S:1:pos:R:3 pbc="T T T"
Tm       1.35077613       0.11463857       7.97561644
Pd       5.83548244       3.16844639       8.24684160
Tm       7.38308984       6.19955161       8.15235015
Ga       7.10933699       7.54915131       4.88903273
Ga       4.33362592       1.11133901       7.97261706
Tm       3.49973116       2.53060544       2.15728835
Pd       4.95802502       7.08363674       6.30570116
Ga       4.50788567       5.26514531       7.89144361
Ga       2.51515599       3.43750532       5.01571139
Pd       3.09881253       3.24417110       7.46819725
Pd       2.47126691       5.27347682       9.38908634
Ga       4.49801349       7.29567420       3.75897551
Pd       0.57707739       1.48896194       2.10193546
Ga       1.04109585       1.29940109       4.66524351
Pd       5.14202180       5.31855778       1.83215917
Tm       5.50924060       4.36516746       4.96290692
Pd       3.72939892       1.28432964       5.52562373
Pd       6.56392366       7.67277375       2.38982503
Ga       6.46013728       3.20963805       2.18068518
Pd       2.96320391       5.33741936       3.57391310
11
Lattice="5.036796569824219 0.0 -0.5596205592155457 0.6029129316953279 8.475919152164328 -0.23812782764434814 0.0 0.0 8.451370239257812" Properties=species:S:1:pos:R:3 pbc="T T T"
Cl       1.68905949       3.67617711       7.15835896
K        1.63111922       7.61318960       2.15796483
K        4.05314458       4.74209269       4.96777364
Ag       4.71258722       0.41748789       5.25942046
K        4.28994508       3.42213899       0.57764412
Ag       2.25099700       1.28021081       6.78377200
Cl       3.59016433       2.00956406       3.46372774
Cl       4.51506660       0.54270533       7.86438798
Cl       4.14527221       5.93718848       2.15151899
Cl       1.09338913       2.20586379       3.53420269
Cl       2.39414772       7.51085090       5.29503807
12
Lattice="4.1223578453063965 0.0 1.4254777431488037 1.7732169596733331 6.5230789046607285 1.6222875118255615 0.0 0.0 6.739738941192627" Properties=species:S:1:pos:R:3 pbc="T T T"
Ti       1.62836860       3.31035052       6.70580750
Ti       2.33740565       0.70751016       4.61014677
Si       5.68626443       6.06690667       8.34934717
Mo       2.37205699       5.86085398       4.55941139
Si       3.22033102       1.69840910       2.03504783
Si       4.15321588       4.46695058       6.08350610
W        1.42746568       0.59235667       7.26611721
Si       3.30320562       4.55847702       8.56425392
Si       0.75326350       2.12347707       2.52152168
Mo       2.56217563       3.33271424       3.98679109
Mo       4.05064468       1.97653161       6.35400753
W        4.94097354       5.20892891       3.78251352
9
Lattice="4.192561626434326 0.0 -0.00023758459428790957 -0.0020240958708461756 6.955689612569458 -4.021444320678711 0.0 0.0 8.036225318908691" Properties=species:S:1:pos:R:3 pbc="T T T"
Tm       2.98630336       2.88910428      -1.00944473
Tm       2.98586359       4.52741903       1.82753194
Tm       0.89025285       4.52793685       4.80478212
Sb       2.98617600       6.84593856       3.95383529
Tm       0.89127351       1.78586783       1.52028039
Tm       2.98436723       6.16416123      -1.00955680
Tm       0.89109468       0.31150087       5.54159838
Sb       2.98721045       2.20821956       3.95681734
Mn       0.88955478       4.52808942      -0.06148846
14
Lattice="6.675490856170654 0.0 1.031627893447876 1.5444253985205234 7.553841398952852 -0.6969306468963623 0.0 0.0 8.637035369873047" Properties=species:S:1:pos:R:3 pbc="T T T"
Pr       3.98513204       7.51424919       3.21313230
Pr       4.32621190       5.25701917       6.16200930
Pr       6.83338136       4.44308916       8.57818216
Pr       1.58804299       4.84850375       4.06637940
Ho       1.60331254       2.39878945       1.55207615
Pr       2.97845146       2.10264054       6.50536799
Cu       4.58751625       2.60899601       0.47245301
Pr       7.32779951       7.28620149       2.63521721
Cu       6.46115587       7.15129982       5.59189789
Ho       5.16550362       7.54837634       8.43033238
Pr       0.24180744       0.21994894       7.65188400
Ho       3.14040634       5.18600578       0.75901203
Ho       6.37005533       2.07780260       5.87888836
Pr       5.07227241       3.75358298       3.16225715
4
Lattice="7.515450954437256 0.0 15.315655708312988 5.303569263674033 6.500972432445907 15.579038619995117 0.0 0.0 15.773088455200195" Properties=species:S:1:pos:R:3 pbc="T T T"
Ga       5.72610103       2.11835472      18.93274282
Li      11.89988486       5.72424429      33.52211824
Al       5.00483434       3.90639245      27.40817034
Cd       6.15250524       0.56256751      27.74717083
10
Lattice="6.963165760040283 0.0 1.7016081809997559 3.5450416611288347 7.117336790571465 0.9250190854072571 0.0 0.0 8.341310501098633" Properties=species:S:1:pos:R:3 pbc="T T T"
K        6.38922493       2.49618740       3.19803219
K        2.96073938       5.27358679       2.36422762
Br       5.02937587       0.18147338       5.48060990
Br       4.44353889       3.38393318       8.39637164
Sm       6.44228169       5.38254169       7.39535909
Br       7.65143821       5.16195673      10.06687298
Br       5.21772701       5.25322945       4.70646750
Sm       2.95733731       5.30763053       6.54046566
Br       8.39728329       3.40259383       6.34946601
Br       0.78769647       0.17198561       7.47770709
6
Lattice="3.3413267135620117 0.0 0.006379310041666031 0.008683896422596685 3.340114272235091 0.006546241231262684 0.0 0.0 9.945465087890625" Properties=species:S:1:pos:R:3 pbc="T T T"
Lu       0.84392059       1.75700331       4.97004496
Co       2.51086458       0.08591866       6.60088806
Lu       0.84599739       1.75615242       1.63292297
Lu       0.84394988       1.75398357       8.23772166
Os       2.51104974       0.08528169       9.88677863
Ru       2.51082408       0.08619510       3.33605702
18
Lattice="6.327346324920654 0.0 -2.135695457458496 -0.8294870699942293 7.529171718222821 0.7292228937149048 0.0 0.0 12.300590515136719" Properties=species:S:1:pos:R:3 pbc="T T T"
Mn       1.15953130       4.97364119       5.04782085
Rb       0.95723617       5.90557029       9.33284524
Cl       4.86051978       0.18744788       6.91389532
Mn       5.59441311       1.58535817       8.46897912
Cl       2.84000858       4.69248812       6.51886598
Cl       5.24941879       3.58127171       9.41212316
Tl       4.48163537       2.48598386       4.56335588
Rb      -0.02759731       0.78403834       2.24943090
Cu       4.55161144       4.31447668       0.72773348
Cl       3.69546080       2.48646943       1.50142392
Cl       4.04699249       0.81764071       9.86159915
Cl       0.59303454       2.55910523       9.04480725
Cl       1.70497660       7.15344903       4.81941900
Cl       5.54955381       5.40783100       4.06270077
Cl       0.34136091       5.08281839       2.80590060
Cl       0.83497408       0.19942787      11.36183131
Cl       0.95426475       2.71642664       4.91995758
Cl       3.03680935       5.58774389      -0.05263547
18
Lattice="7.905216217041016 0.0 10.787317276000977 4.922386410609305 8.237889418161709 13.948665618896484 0.0 0.0 14.845559120178223" Properties=species:S:1:pos:R:3 pbc="T T T"
Li       3.27879396       2.76850481      19.28720452
I        6.21647216       5.87358274      15.16652364
Ge       9.99714773       7.13992159      26.24489118
Li       8.98776651       8.17342288      32.97849609
Li       8.04672700       4.45262035      25.58911826
Sr       3.18470379       1.28454427      11.80408116
O        6.46350319       5.20797653      26.19815752
O        2.28758187       3.10689691      13.59579033
Sr       7.83485709       3.33098382      16.38472285
H        5.57135612       2.14486503      21.20899035
O       10.33196563       7.65507447      31.22584514
Ge       5.05811204       5.02815255      19.88246844
O        7.32453670       0.56343054      12.14968324
Ge      12.49465824       7.75967669      37.79212601
O        2.65324463       0.50471111      18.61096816
O        6.66299119       4.47855192      19.26485216
O        4.88572714       6.70603145      20.17956336
O       10.94725779       5.24281906      33.91044842
12
Lattice="4.049985408782959 0.0 0.0005004822742193937 0.0038744406462877176 4.077168054275848 0.0044694156385958195 0.0 0.0 14.277291297912598" Properties=species:S:1:pos:R:3 pbc="T T T"
Nd       1.94839532       0.81555106       5.44452169
Si       1.94922003       2.85538116       0.73626463
Si       1.95290218       2.85549222      10.07620625
Si       1.94760636       0.81624281      13.71769298
Nd       3.97624328       2.85693405      12.66166785
Si       3.97407929       0.81925630      10.08196135
Si       3.97730374       2.85540717       4.40908290
Si       1.94997051       2.85204258       7.75164103
Nd       3.97323875       0.81596996       1.92789219
Si       1.95086330       2.85444141       3.09968760
Si       3.97464834       0.81578290       7.76710807
Ir       1.95039525       0.81600636      11.34912459
11
Lattice="6.898460865020752 0.0 -1.095528244972229 0.8978178921180702 7.846570605823634 2.4429147243499756 0.0 0.0 8.412534713745117" Properties=species:S:1:pos:R:3 pbc="T T T"
Br       4.23801128       2.69193421       7.36991266
Sn       7.07911941       5.85465004       2.63117149
Cu       3.24832963       0.83966619       6.38715178
Br       1.13693023       0.38543920       7.72097257
Br       4.71175215       4.93718462       2.90877135
Br       1.26902002       4.38891016       5.74128606
Br       1.21777484       4.11468500       1.55628789
Sn       1.27152711       6.53035515       7.65607341
Hg       6.63549261       2.08777873      -0.27626100
Br       6.22040055       0.50277989       2.17097589
Br       3.95027533       7.07405184       7.18684509
5
Lattice="3.4439823627471924 0.0 -0.9597378969192505 -0.4707887311523607 4.420338235981342 -1.7158844470977783 0.0 0.0 6.5090742111206055" Properties=species:S:1:pos:R:3 pbc="T T T"
N        0.76612823       3.19945427      -0.98095571
Tb       2.11924304       2.64455048       3.74390796
Sc       0.94825606       0.90784442      -0.31867636
N        2.35817759       0.44584187       4.61980267
Sr       3.01180649       3.97794756       0.36428046
12
Lattice="7.458027362823486 0.0 -1.2368711233139038 -3.994968676703138 6.3040190063232675 -1.237120270729065 0.0 0.0 7.499133586883545" Properties=species:S:1:pos:R:3 pbc="T T T"
Ho       0.09880749       4.05489933       5.53234089
Ho       4.62101645       3.50798529       3.13634447
Bi       2.89511439       0.38051782       0.63898373
Ho       5.78659318       0.75103301       1.97035711
Bi       2.81259901       4.50917664      -0.63020643
Bi      -1.86274853       5.27157963       2.01866844
Ho       3.65192523       1.75762238       5.54282064
Ho      -3.95763064       6.28572041       5.51951692
Bi      -1.02775701       2.51857121       0.60917403
Ho       1.66835113       3.02194330       1.98644168
As       0.94600886       1.47580598       4.38495592
As       0.87073686       5.62360028       3.14664837
10
Lattice="53.81874465942383 0.0 1014.5421142578125 3.1812002460452518 74.55119162194069 1014.6221923828125 0.0 0.0 915.6748046875" Properties=species:S:1:pos:R:3 pbc="T T T"
N       12.51236260      72.61709368    1480.15405625
Al      24.00870624      44.41289734    1271.71793635
Er       9.41897604      26.26824986    1116.96039819
Rb      48.73484030      24.42917825    1601.98051457
Na       5.37698312      38.17352685     877.00240368
Rb      42.70417193      64.79800213    1808.13254544
Tb      52.78224423       5.76769986    1698.85909155
N       44.25568029       2.81373941    1284.47040988
W       17.66927425      44.91421954    1095.12587414
O        4.37127097      20.39985975     600.52581653
4
Lattice="4.346450328826904 0.0 2.5152251720428467 1.4505769579513126 4.097527124014035 2.5145316123962402 0.0 0.0 5.021539688110352" Properties=species:S:1:pos:R:3 pbc="T T T"
La       1.38434861       3.35646480       7.02994179
Lu       2.82954372       1.30590333       4.51649803
Zn       4.27983229       2.33131442       7.03040046
Ir       1.38262060       0.28353331       2.00662622
4
Lattice="16.13242530822754 0.0 29.690950393676758 7.831584622154763 10.276999173539053 32.00181198120117 0.0 0.0 43.45383834838867" Properties=species:S:1:pos:R:3 pbc="T T T"
I       10.77970964       2.42420536      66.91804475
Rb       6.32624386       7.50996273      65.66756010
Sn      13.61687491       1.22409333      68.74868478
Br       8.24178618       0.33562313      24.94177889
4
Lattice="3.1818509101867676 0.0 0.0007239564438350499 -0.00027830712955780675 3.182989585153558 0.0018302887910977006 0.0 0.0 8.338940620422363" Properties=species:S:1:pos:R:3 pbc="T T T"
K        1.86586666       1.32550078       0.34130070
Ta       1.86683269       1.32193251       4.51800290
Pt       0.27522365       2.91408402       5.99333990
Pt       0.27567489       2.91368485       3.03195824
20
Lattice="13.761576652526855 0.0 299.1492614746094 3.0044014964352073 20.445585912500803 286.0701599121094 0.0 0.0 295.5395812988281" Properties=species:S:1:pos:R:3 pbc="T T T"
Rb      10.89598852       8.10168792     561.72724944
Rb       9.69744546       6.64938269     518.06779596
Rb       8.78388228      14.25215086     630.43224756
Ba       8.54891056      19.88024112     603.82191165
As       6.53437779      13.16062387     351.43816323
Rb       3.30929480       2.51958517     275.76815056
Rb      12.08916589       6.21127063     381.44227558
As       6.81463560      18.62972880     414.78189528
Rb       5.86428984       5.26989373     381.67660515
Br       9.63058311      10.08864193     359.12357215
Rb      13.96482810      17.96057801     777.94323541
Rb       2.09863459       7.51673928     231.23119825
Cs       8.34484815      16.45258527     619.69480556
Rb       8.08119823       3.09700787     365.08565150
Cu      14.94217213      13.04828366     704.70694158
Br      13.37243916       3.78468003     355.46820109
Rb       7.31175665      18.07109633     432.21751263
Rb       3.93153260      12.49989519     292.23356362
Rh       9.39264835       6.01491717     516.02152765
Rb       6.29329353       3.63275039     282.03672225
7
Lattice="85.06678009033203 0.0 1278.297119140625 15.813404708076636 20.068977026661997 1444.2041015625 0.0 0.0 1492.3974609375" Properties=species:S:1:pos:R:3 pbc="T T T"
Rb      72.35841526       7.59951788    2991.55687504
N       12.70919435      11.24858678    1673.25178455
Rb      43.29396822       5.81632245    2180.24188985
Ca      62.81802261       0.45749145    1709.56985597
Ge      73.47608640      18.29612697    3488.97501676
Ti      55.10104848       9.62917325    1865.95924606
As      86.57066889      15.54864080    2940.03315108
8
Lattice="4.3409624099731445 0.0 1.1772289276123047 2.0198548115680945 3.8424269260112354 1.1770861148834229 0.0 0.0 8.670878410339355" Properties=species:S:1:pos:R:3 pbc="T T T"
Sc       3.85191526       1.89669927       8.80801667
Sm       2.69126160       3.81756564       4.47186086
Pd       4.52743997       2.30635792       6.29271010
Zn       5.49086503       2.88655097       2.70781361
Pd       1.46534878       0.45491337       9.00605224
Pd       1.89503558       3.33700966       7.43208243
Zn       2.21251827       0.90705559       6.23574692
Pd       3.17469063       1.48715387       2.64980651
6
Lattice="151.628173828125 0.0 744.2604370117188 80.0178026192907 100.2319252086924 677.1917724609375 0.0 0.0 730.2854614257812" Properties=species:S:1:pos:R:3 pbc="T T T"
Tm     133.31514866      57.72644119     845.97058617
Re      81.00574448      32.02875699     734.45358927
Cs     126.24135933      59.38192245    1316.88796656
Rb     115.00368033      41.00578233    1316.11189142
Sm     155.84327434      97.54261725    1372.16128742
Mo     205.86055418      79.56607936    1849.85769728
8
Lattice="26.12367820739746 0.0 220.44410705566406 30.718252839226807 3.7507812648979018 282.44537353515625 0.0 0.0 285.4925842285156" Properties=species:S:1:pos:R:3 pbc="T T T"
Rb      47.65679626       3.38741154     428.14988920
Rb      16.89609539       0.63283682     250.34795481
Rb      42.11056294       2.74250970     508.56386040
Rb      17.17392542       1.32535426     211.39606055
Be      25.91498347       2.14288427     308.60307376
K       44.59546793       2.59774688     581.12919882
Rb      17.84707834       1.31027800     252.68911850
Cs      30.35591911       1.15494049     374.79945462
6
Lattice="4.950305938720703 0.0 0.0022611329331994057 0.0009690778084389498 4.798974416162518 0.000858485815115273 0.0 0.0 8.355770111083984" Properties=species:S:1:pos:R:3 pbc="T T T"
Ag       3.65297660       0.99505040       1.22858568
Ag       3.65472173       0.99133973       6.80913818
Ag       3.65350109       3.38924656       5.39680198
Rb       1.18058327       0.99467454       4.00745251
Rb       1.17847249       3.39218678       8.19366249
Ag       3.65198700       3.39298455       2.62135736
12
Lattice="342.3708190917969 0.0 1694.3890380859375 74.97968622687496 72.29802867396747 1741.07177734375 0.0 0.0 1933.5621337890625" Properties=species:S:1:pos:R:3 pbc="T T T"
Rb     153.14766787       0.04306431    2114.85588666
Sr     150.72858791      21.78627172    1974.08989225
Y      363.78008216      56.09957022    4322.84734759
Ba     349.38895157       6.84134990    1878.56066082
Li     196.49030926      53.52835412    3330.18977423
Tl     237.48245317      47.51094475    2781.15221222
Al      87.05541561      16.37892971     895.82457603
Rb     123.93496647      40.15731248    1384.77608548
Y      223.14205493       0.04451613    1476.83077460
Y      311.67030798      68.01102236    3164.59212657
Sc     113.72577408      47.70092017    3242.72407620
Rb     214.82090188      17.17971369    2162.31457943
