16
Lattice="5.779575347900391 0.0 3.396390438079834 1.9849526176673173 5.511502110396761 3.3890914916992188 0.0 0.0 6.774964332580566" Properties=species:S:1:pos:R:3 pbc="T T T"
Na       5.67348706       0.21702196       9.32841182
O        5.74846087       4.55346117       9.32801457
Na       6.66523932       2.97395833      11.02335695
Er       2.78298176       0.21736138       7.63148929
Na       3.77522900       2.97382988       9.32390857
Er       3.77561472       2.97430688       5.93774232
O        1.80252266       1.39451281       2.54716690
Na       6.66554778       2.97275926       7.63536899
As       5.67176377       0.21653659       5.93845262
O        2.03191942       1.52576697       5.93939679
Er       2.78533749       0.21749272       4.24486052
O        2.89898703       4.43134209       4.41638925
O        2.89755071       4.43062692       7.45643014
O        5.52094976       4.42016318       5.93660413
O        4.65118684       1.51465590       7.45641087
O        4.65293856       1.51570040       4.42007981
16
Lattice="4.742847919464111 0.0 -0.0029758631717413664 -0.0070141468665043255 7.644343972906113 0.5802835822105408 0.0 0.0 12.579590797424316" Properties=species:S:1:pos:R:3 pbc="T T T"
Sr       4.22983059       5.79341182      10.88437593
In       1.86395987       5.92069122       1.11411014
Sr       1.86121501       6.08863771       4.91085799
Sr       4.23088388       2.02267457       9.15948965
Sr       1.86396591       2.16690782       5.98125858
In       4.23554719       1.18408051      12.37943370
Ga       1.86308766       0.34428095      10.93449647
In       4.23417607       3.74902357       3.97603130
In       1.86000425       3.34532612      11.46982139
Sr       1.86462720       1.98798340       2.00714016
In       4.22879137       7.24426429       7.30310057
In       1.86030900       4.58617234       8.51958163
Ga       4.23175043       4.45684394       6.84232800
Ga       4.23324239       6.75165356       2.57309143
Ga       1.85680283       7.38695475       8.91379669
Ga       4.23751109       0.81373614       4.05934635
19
Lattice="3.5999910831451416 0.0 -0.0021330448798835278 -0.002984667137459996 9.163382997808723 -1.4350850582122803 0.0 0.0 10.136221885681152" Properties=species:S:1:pos:R:3 pbc="T T T"
K        2.69593140       7.03705000       4.96875040
Zn       0.89693993       1.56550030       6.86620087
Ni       0.89555421       3.81551812       3.81278109
Zn       2.69598659       4.47426414       1.80806064
Ni       2.69455996       3.52336825       7.17885691
Ni       0.89531759       3.17500142       8.87610919
Ni       2.69363933       8.46190521       8.57898805
Ni       0.89615606       7.87883274       1.76272520
Ni       0.89501924       5.34449221       7.61549828
S        2.69575546       6.39866913       8.05501614
S        0.89551583       0.15111724       8.96071342
S        0.89818658       0.14230812       4.99990619
S        0.89465818       5.71647697       2.56784439
S        2.69656349       3.40799861      -0.24784527
Ni       2.69728850       0.48180176       3.74043568
S        2.69570746       2.63549255       3.38699101
S        2.69538497       8.23310705       0.62982425
Ni       2.69542649       1.45458394       8.76421753
S        0.89466877       3.89901624       5.99403515
18
Lattice="4.663710117340088 0.0 -0.0012144153006374836 -0.0059877038030250246 9.083408289540582 1.676902174949646 0.0 0.0 8.31266975402832" Properties=species:S:1:pos:R:3 pbc="T T T"
Cd       2.24288459       2.68518242       4.08211500
Cd       2.23899958       6.76464601       7.67723134
Ga       2.23956639       8.83073773       5.39672340
Cd       4.57056280       7.49264769       4.17113560
Cd       4.57549612       2.33399251       5.98372223
Cd       2.24219084       5.70060478       4.66830319
Cd       2.24433179       1.61548478       1.15903869
Ga       2.24267830       3.77278163       7.14632987
Ga       4.57192812       6.38965989       1.21507902
Ag       4.57160828       8.43471933       7.02513553
Ag       2.23925246       4.79544129       1.78212376
Ag       4.57593214       1.32422377       2.97396992
Ga       4.57579366       0.20342717       8.24150451
Cd       4.57381578       3.42106059       0.65221642
Ga       4.57370525       4.34356798       3.53291453
Ag       2.24355306       0.65566060       6.61363893
Ag       4.57316223       5.33222228       6.52110253
Ag       2.23755736       7.71378309       2.27833936
12
Lattice="6.250850200653076 0.0 0.05970893055200577 0.03256694621726851 6.336436504514958 -0.7872883677482605 0.0 0.0 6.382262706756592" Properties=species:S:1:pos:R:3 pbc="T T T"
La       0.11593101       1.22299015       1.81612152
La       3.27113883       5.34147469       5.49019030
Ga       3.25686741       3.04528005       3.44867499
Au       1.68833393       1.80304176       5.31765652
Ga       0.12809380       3.52077898       3.85341375
Ga       3.23286159       0.49471137       3.02130388
Au       4.80611126       1.80394556       5.34106248
Au       4.82537928       4.75255134       2.01526727
Ga       3.24671265       2.29279815       0.97747269
Ga       0.14069298       4.26213062      -0.05550428
Ga       0.15126210       6.06694937       4.28157709
Au       1.69957509       4.75273339       1.98269761
12
Lattice="5.187975883483887 0.0 1.3023064136505127 2.102202763536525 7.846947257689271 2.6411781311035156 0.0 0.0 10.916815757751465" Properties=species:S:1:pos:R:3 pbc="T T T"
Tb       0.54960362       0.31793531      10.69022480
I        3.24569000       6.02461649      10.94667280
I        3.57327186       0.78337695       9.61415344
I        5.99897657       3.39602310      10.93868002
Tb       4.97865343       2.30115793       4.04046920
Tb       2.97480486       2.94632870      11.99418619
Tb       4.64973709       7.52529298       5.36559326
I        4.37400133       4.44435184       6.43377084
Tb       2.21898190       4.91576503       4.06018279
I        6.81169830       7.07215152       7.74878057
Tb       5.39688063       5.54075134      13.35911227
I        1.95207645       1.83238207       5.11351647
4
Lattice="3.410762310028076 0.0 0.5966942310333252 1.653934436004078 2.9843290826246314 0.5974839925765991 0.0 0.0 10.065776824951172" Properties=species:S:1:pos:R:3 pbc="T T T"
Ta       3.10038984       0.81043147       4.72800087
Se       1.09238052       1.63690949       6.16435103
Hg       2.21895162       2.29676307       9.77326870
Se       3.35121677       2.96722718       3.28890907
9
Lattice="2.9609944820404053 0.0 -0.017881156876683235 -1.5893296480522279 4.819979774098315 0.006569662597030401 0.0 0.0 7.626182556152344" Properties=species:S:1:pos:R:3 pbc="T T T"
Be      -0.17721058       1.13421366       1.97300520
Pd       2.78505321       0.02561094       4.28801237
H       -1.03792336       4.26761812       5.79293759
Pd      -0.19135328       2.75706936       5.77845945
Be       1.30470106       1.05493288       5.77533213
Pd       1.28204133       2.20014980       0.55549265
Pd      -0.24855675       4.18788651       1.97803865
Pd       2.78584577       0.02217271       7.25668843
Pd       1.28510918       2.20457857       3.36812263
5
Lattice="3.7393109798431396 0.0 -1.3277448415756226 -0.47236484497220876 3.707425507259975 -1.3292715549468994 0.0 0.0 5.9188232421875" Properties=species:S:1:pos:R:3 pbc="T T T"
Er       2.49846114       0.95917655      -0.22010897
Re       1.44479010       1.88612894       2.74014650
Mn       3.55078044       0.03229656       2.73985096
Si       0.77590957       3.24623098       0.84860848
Si       0.01308373       2.37960972       4.63139360
7
Lattice="5.3164777755737305 0.0 -3.0945749282836914 -3.560218978707696 5.018312081892933 0.006861505564302206 0.0 0.0 6.148620128631592" Properties=species:S:1:pos:R:3 pbc="T T T"
Tl       1.92646572       4.02320530      -1.79193882
Mo       1.94036773       0.26610862       4.36970941
O        2.00044056       0.67285480       2.61759923
O       -0.83570951       3.68283610       4.67071817
O        0.22364281       0.19156476       4.89964310
Na       3.70577957       1.51859491       1.28613102
O        2.81770954       1.52494108      -0.85004191
12
Lattice="5.519186019897461 0.0 0.0016821069875732064 -2.7624438333418766 4.782038304613467 -0.004054982215166092 0.0 0.0 6.309217929840088" Properties=species:S:1:pos:R:3 pbc="T T T"
Sr       0.82076726       1.87303262       3.94706716
Sr      -1.94098821       3.46736239       6.09385845
O       -0.49942010       1.11019767       0.02333470
Be       0.82159440       1.87298203       0.22029588
Sr       3.57987264       0.28016797       1.86822093
Mg       3.58039695       0.28009976       5.02138209
Be      -1.94059744       3.46596146       3.49919404
O        2.26093235       4.23007414       3.70003792
O       -0.62071123       4.22906998       3.69911296
O        0.82156884       3.40136359       0.02820064
O        2.14365205       1.10968582       0.02902671
O        3.57756124       1.94268624       3.69944860
6
Lattice="4.345031261444092 0.0 0.0007379145827144384 -2.16913902001022 3.765452555765762 0.00012102902837796137 0.0 0.0 7.703798770904541" Properties=species:S:1:pos:R:3 pbc="T T T"
As       2.46238273       0.51535986       4.34454796
Sm       0.29127397       1.77066584       2.42557225
Sm       0.29132949       1.77034018       6.27739423
As       2.46471874       3.02535573       0.50706022
Pd       2.46453330       3.02564481       4.36298750
Pd       2.46279329       0.51583180       0.48424298
4
Lattice="4.689829349517822 0.0 -0.0032389049883931875 -0.00262646454445309 4.692054967103479 0.0013684917939826846 0.0 0.0 5.04729700088501" Properties=species:S:1:pos:R:3 pbc="T T T"
Sm       2.29004275       3.33445513       4.38146801
Ce       2.29071272       0.98851400       1.85623471
Sn       4.63461265       0.98931937       4.37908749
Ce       4.63516419       3.33435921       1.85672004
12
Lattice="4.076962471008301 0.0 -0.006908841896802187 -0.018124979031035358 7.588752559432172 -0.3327372968196869 0.0 0.0 10.390026092529297" Properties=species:S:1:pos:R:3 pbc="T T T"
Tl       0.20795504       0.38264976       8.85752273
Dy       2.22852166       6.70531227       5.14871022
S        0.19171858       5.62741299       6.67588190
Tl       2.24238764       1.70832056       1.92675681
Tl       2.23506287       4.22744526       8.83221020
S        0.20568831       0.06036500       3.88194259
Tl       0.19977565       2.89550131       5.38602767
S        2.24272494       1.44083427       6.97993324
S        2.23469072       4.53668939       3.42996934
S        0.20186773       3.16718664       0.32388279
Dy       0.19321731       5.48444213       1.82864394
S        2.22832723       6.57264764       0.30747678
8
Lattice="3.946953296661377 0.0 0.0019839832093566656 0.00021011905117215293 3.95749377646543 0.0011721756309270859 0.0 0.0 10.746966361999512" Properties=species:S:1:pos:R:3 pbc="T T T"
Au       1.16081773       1.10113246       6.88719797
Au       1.15935031       3.07927761       8.97526586
Au       3.13429769       3.07978712       6.88416771
Zn       3.13456532       1.10188670       5.01589007
Au       1.15881802       3.07899431       1.06764448
Pb       3.13308033       1.10100496      10.39608157
Au       3.13399497       3.08091748       3.17106836
Au       1.15841827       1.10179129       3.16129693
5
Lattice="3.5946402549743652 0.0 -0.0001972737954929471 -0.002523750992077514 3.5904524993268785 -0.00028264711727388203 0.0 0.0 3.878680467605591" Properties=species:S:1:pos:R:3 pbc="T T T"
Cr       1.73143863       1.28672546       2.44257240
Co       3.52954315       1.28718975       0.50183684
Cr       3.52930030       3.08238829       2.44179642
Ga       1.72759672       3.08203325       0.50208902
H        3.52892370       1.28662691       2.43804121
10
Lattice="4.253008842468262 0.0 0.0009605755913071334 -0.00592635042055426 5.793252297879658 -3.058084726333618 0.0 0.0 6.552250385284424" Properties=species:S:1:pos:R:3 pbc="T T T"
F        2.65944524       5.51336174       1.93405676
Tl       0.53989061       1.65392427       4.24472391
F        2.66331174       3.59348945       3.50632200
F        2.66525025       1.90320235      -0.24466912
In       2.66364191       5.66156170      -2.39689760
F        2.66794557       1.40772129       2.18782408
In       2.66544147       3.44348355       1.28475264
F        0.53874771       3.39749068       1.36115788
F        0.53515555       5.71083151      -2.47426824
F        2.66274333       4.55652574      -0.55660890
20
Lattice="5.760013580322266 0.0 -0.0013309739297255874 -2.8790940107403884 4.98756270605999 -0.00019522190268617123 0.0 0.0 9.409221649169922" Properties=species:S:1:pos:R:3 pbc="T T T"
Ba       2.61371860       4.14823601       7.30770687
O       -0.26300646       4.14397239       2.60605504
V       -0.26868425       2.48328745       6.25113211
O        3.88707329       0.08692372       0.25665091
Ba       2.61752872       4.14500009       2.60676638
V       -0.26157481       2.48088779       3.65969344
Ba      -0.26402692       2.48409740       0.25572361
O        1.33676184       0.08073249       0.25588489
O        4.05670314       1.65735553       7.30970217
O       -1.54345746       3.21910312       4.96799813
V        2.61405587       0.81745931       1.54938237
V        2.61190762       0.82432526       8.38835094
O        1.17848473       1.65082930       2.60459325
O       -0.26861385       1.01100150       4.96320078
O        1.16707977       1.65870489       7.31432071
O        2.61533974       2.29928259       0.25136139
O        1.01005833       3.22136097       4.96076575
O        4.05679251       1.65418175       2.60445897
Ba       2.61250484       0.82082544       4.96227453
O       -0.26639583       4.13979706       7.31067774
8
Lattice="6.760379791259766 0.0 0.0025584374088793993 0.0014954122834579017 7.4145530146338565 -4.303506851196289 0.0 0.0 8.5808744430542" Properties=species:S:1:pos:R:3 pbc="T T T"
K        6.59077236       1.14817860       3.53037054
K        3.21306847       2.45486317       1.25599961
K        3.21129925       2.45353292       5.79548473
K        3.21531413       6.37785964       3.52286978
K        6.59462343       5.07245770       1.25348843
Mg       6.59501109       1.29055612       7.82112188
Mg       3.21663188       6.23550400      -0.76868364
K        6.59565584       5.07072529      -2.78047460
12
Lattice="5.888899326324463 0.0 -2.3184759616851807 -0.9076330352062459 5.8272921046414465 -2.3262264728546143 0.0 0.0 8.600353240966797" Properties=species:S:1:pos:R:3 pbc="T T T"
Y        1.74946694       0.66310887       5.43606763
Sn      -0.57646434       4.83415780      -0.46332169
Ag       5.16063511       1.21104017       1.15459739
Ag       1.76335540       4.12194836       1.15094151
Ag       4.71110095       4.12427550      -0.01163897
Sn       1.15935028       3.41765327       3.92006464
Y       -0.25740814       1.76000642       0.34431273
Y        2.23093312       4.67005236      -1.97560378
Y        4.24049210       3.58128494       3.12013819
Sn       2.82414578       1.91727390      -0.45935607
Ag       2.21966540       1.21231740       2.30977870
Sn       4.55803906       0.50338978       3.92581409
6
Lattice="2.7627251148223877 0.0 -0.0047452920116484165 -1.3720996632390265 4.587164926046822 0.007067659869790077 0.0 0.0 7.4767985343933105" Properties=species:S:1:pos:R:3 pbc="T T T"
Pt       0.59858232       2.40438525       2.87137866
Pt      -0.77498390       4.50797371       6.61754298
W        1.97579158       0.32855156       4.19688780
Pt      -0.77446483       4.51347075       1.79620026
Pt       0.59917737       2.40157836       5.52666494
W        1.98225503       1.99775569       0.45514062
15
Lattice="5.568163871765137 0.0 3.045379877090454 1.9560132761384355 5.2192803510588295 3.0456178188323975 0.0 0.0 6.61913537979126" Properties=species:S:1:pos:R:3 pbc="T T T"
O        4.00371901       1.08367401       6.13657429
In       3.78633158       4.79154099       6.13529846
Na       6.56948988       4.79460028      10.97015469
Ni       5.59053981       2.18417226       6.13698614
In       6.56883253       4.79484947       7.65988842
Na       2.80702225       2.18547808       7.92345470
In       2.80524492       2.18407645       4.61444359
O        0.88032002       1.08284409       4.42638983
O        1.99827541       3.55571239       6.09761667
O        1.60949913       3.28422931       3.09472622
O        4.86239276       3.37071699       7.47154638
Na       5.59097569       2.18414955       9.44772124
O        4.73210124       3.28431362       4.79876778
O        0.75296850       0.99501871       1.75723034
O        3.61589215       0.81218253       3.13257554
16
Lattice="6.600338935852051 0.0 0.0003270293236710131 -0.06920379504460157 6.606916874917828 0.017867572605609894 0.0 0.0 10.956398963928223" Properties=species:S:1:pos:R:3 pbc="T T T"
Tl       0.22127690       3.28814836       4.98214558
Sm       3.52916734       3.17253294       4.92484717
Sm       0.32407067       3.18276335      10.40637376
Sm       5.21725691       4.87984173       7.66685960
Sm       0.29948637       6.58510728       4.93947559
Nd       5.22061563       4.88230418       2.19070202
Nd       1.94695265       1.57371873       2.17183254
Tl       1.95428637       1.57571373       7.68143507
Sm       3.51000815       6.57408119      10.41861868
Tl       3.63311895       3.28311930      10.33181003
Sm       5.24339715       1.57711370       7.65081824
Nd       1.91810060       4.88142640       7.64942066
Tl       0.19821521       6.47404107      10.33391021
Tl       1.91540159       4.87740882       2.20546701
Tl       3.60871069       6.47657047       4.99846549
Tl       5.24585021       1.57450811       2.19823222
12
Lattice="5.691335678100586 0.0 0.024157145991921425 0.05136451194478632 7.082256500735594 0.027809152379631996 0.0 0.0 9.753843307495117" Properties=species:S:1:pos:R:3 pbc="T T T"
Tb       3.46854492       4.18441065       5.59522441
Dy       0.63519701       5.95444035       7.20689478
Sm       3.48233290       5.95493594       8.84585303
Sm       3.45517190       2.41558003       2.34317907
Dy       3.45702800       2.41415342       8.84408353
Dy       0.61073456       2.41640804       3.95577487
Dy       3.48277104       5.95505625       2.34493360
Sm       0.60970255       2.41024677       7.20727273
Tb       0.59689317       0.64329997       0.69225198
Sm       0.63641233       5.95526309       3.95509638
Y        0.62307923       4.18538832       0.70587116
Y        3.44407271       0.64328367       5.58022327
20
Lattice="6.339294910430908 0.0 0.6902734637260437 -0.2602094835080217 5.6227473396445955 2.16766357421875 0.0 0.0 6.36072301864624" Properties=species:S:1:pos:R:3 pbc="T T T"
Sc       3.41981322       2.98104493       1.77128495
O        1.32803022       3.51747333       7.68544343
B        3.22527435       2.82503539       4.94827283
O        5.54872932       2.47637911       1.85727658
B        2.05178535       0.25175431       2.18656399
Tb       4.95569880       5.53284386       3.90040213
O        5.11732854       5.28288568       6.05281810
B        0.15369216       3.08913623       1.97670272
B        4.85382338       5.60963123       7.33120562
O        1.25844355       0.27919311       1.06620712
O        6.06457956       0.60087307       5.97327861
O        2.04474819       2.08092378       5.00608156
O        3.68143674       5.18370983       7.97712456
O       -0.11663646       3.42965510       3.25352021
Tb       0.05871603       3.16896299       5.40550352
Sc       1.85185154       0.09627903       5.36542694
O        3.22982332       0.99453187       2.12756209
O        4.01714578       2.79556268       6.06342635
O        1.50527963       5.12157285       5.48977820
O        3.50272203       3.58223915       3.81037728
10
Lattice="3.8006582260131836 0.0 0.0004311600932851434 0.005040225582884394 6.718217389572458 0.001607861602678895 0.0 0.0 6.728569507598877" Properties=species:S:1:pos:R:3 pbc="T T T"
Si       1.42619883       0.14626858       2.43457649
Zr       3.33160477       5.54450342       1.10768502
Si       1.43071208       5.23143420       5.79855635
Zr       3.33116318       6.55384603       4.47195052
Zr       3.32811144       2.18658543       2.12094750
Si       1.42928013       3.50922290       0.79459682
Zr       3.32970682       3.19314459       5.48328108
Si       1.42808666       1.87207162       4.15972671
W        1.42720444       1.01077537       6.66007577
W        1.42961441       4.36741457       3.29517321
8
Lattice="4.119828701019287 0.0 -0.00424396526068449 -0.008454861965979854 6.778476210544083 -2.3113696575164795 0.0 0.0 7.373707294464111" Properties=species:S:1:pos:R:3 pbc="T T T"
Ho       2.13026567       4.61758020      -1.23169879
La       2.13502120       1.22782989       3.61124987
Se       2.12897268       6.35743188       3.85627575
Se       2.13347612       2.87664370       1.05426422
Se       0.06867875       6.26521072      -0.09794354
La       0.07119480       4.61655033       2.45882793
Ho       0.07574800       1.22715263      -0.07259723
Se       0.07242754       2.96892668       5.01564211
10
Lattice="7.290834903717041 0.0 3.820106267929077 2.6457270671349415 6.795762556344007 3.8191089630126953 0.0 0.0 8.866907119750977" Properties=species:S:1:pos:R:3 pbc="T T T"
I        8.75155347       5.59938269      12.04217365
Y        7.71347945       1.35362813       8.06787701
Ga       2.26473312       2.61302354       9.59668848
Tl       5.30258527       4.69455295      12.67263430
I        1.89922120       3.99539679       3.69400435
I        2.74289106       0.04295486       2.71694903
I        6.46358963       1.77576231       5.28661836
I        1.97786393       0.77858317       6.77050020
Ga       7.15207294       5.95932501       9.13937333
I        5.62117723       3.00973996       9.47990084
8
Lattice="5.050879955291748 0.0 -2.0407040119171143 -1.136997427510736 6.741582083896489 -2.5659127235412598 0.0 0.0 7.107666015625" Properties=species:S:1:pos:R:3 pbc="T T T"
Ga      -0.37165634       5.91727245      -1.59826001
K        2.16021876       5.32171798       0.89398610
K        3.92024416       2.70165795      -2.00920737
Ga       2.19038534       5.96802152      -2.70282966
Tl       2.42691171       1.87478002       1.48608104
Hg       0.48042226       3.56748945       3.97077653
Hg       1.20736701       0.51966322       5.61791530
Ga       0.15691458       0.82089645       3.11042617
12
Lattice="6.591610908508301 0.0 -0.925362229347229 -3.502052016303651 5.582007399697558 -0.9262114763259888 0.0 0.0 8.092299461364746" Properties=species:S:1:pos:R:3 pbc="T T T"
Tl       3.50719279       1.18218221      -0.43675293
Tb      -0.55890633       1.70470505       2.38950947
S       -1.50756242       3.97473137       3.62101146
Er       1.01750007       0.62405208       5.74497145
Er       2.67147519       3.60154719       1.47947544
Er       0.90955091       4.35916060       4.82200480
Er      -0.66720870       5.44918116       1.47947637
Tl       0.18209894       3.04341785      -0.44369195
Er       4.27957731       2.46202118       4.82007436
Tl       3.42911227       4.86918122      -1.36220433
P        5.22067566       0.23510603       3.62498509
S        1.86967909       2.10498975       3.62264703
11
Lattice="4.6554107666015625 0.0 -1.3833402395248413 -2.4795025647222246 4.045661943147543 -0.9194375872612 0.0 0.0 5.682043075561523" Properties=species:S:1:pos:R:3 pbc="T T T"
La       2.75628134       2.34912579       0.11482001
H        2.78388834       2.36479002       2.96022820
H        1.66851973       0.31172597       1.23911024
H        1.67137109       0.31344066       4.12741202
H        1.20402111       4.03939013      -1.37763325
H       -0.35886830       0.63368786       2.98713513
H        0.05162708       1.90677777      -0.16163259
Pd       1.19453209       1.43055931       2.74679794
Pt      -0.34812522       3.28722958      -1.12139674
H        0.81589049       2.83113090       1.74541330
Pd       3.98832908       0.32588919       3.39620897
4
Lattice="4.623011112213135 0.0 0.0014977038372308016 -0.00039014309861422634 4.715518935276579 -0.000567399023566395 0.0 0.0 4.621964931488037" Properties=species:S:1:pos:R:3 pbc="T T T"
In       2.43629920       3.14573426       2.39378236
Cd       2.43768109       0.78787544       0.08293492
In       0.12646628       3.14564882       0.08202679
Na       0.12547596       0.78810057       2.39342203
14
Lattice="6.039968490600586 0.0 -3.0622918605804443 -3.5550618464244517 5.614190768311645 -1.2692497968673706 0.0 0.0 8.26577377319336" Properties=species:S:1:pos:R:3 pbc="T T T"
Na       2.54557133       4.71235928      -2.69305563
Ga       3.18210360       1.71186309      -1.42918524
Ga       1.08764810       3.09865007      -0.11523476
Ag      -0.54896195       4.96613102      -1.35896967
Ga      -0.42781031       3.05669795       4.97217041
Na       0.27873990       5.04349724       2.59789043
Ga       2.57494046       1.35277701       1.62639331
Ga       5.24076079       0.41757846       1.18727988
Ga       0.68278424       0.61646544       6.68357758
Ag      -2.47016372       3.92049083       3.25723068
Ga       3.12214429       3.63165971       2.88663103
Ag       1.81045605       1.67727554       4.32202376
Ag      -1.36635558       2.27192085      -0.54710109
Ag      -0.18376734       2.13563801       2.16063829
9
Lattice="4.502755165100098 0.0 -0.010279364883899689 -0.02683377721532936 4.503217381086475 -0.010306370444595814 0.0 0.0 9.694005966186523" Properties=species:S:1:pos:R:3 pbc="T T T"
Ba      -0.01341159       3.28525596       1.12679886
Ba      -0.01463248       3.28300478       5.97268389
Ge       2.25159838       1.03192869       7.68938638
Ge       2.25018087       1.03109983       4.24674631
Pd      -0.00221907       1.03067010       3.30817320
Pd       2.24911771       1.03043967       1.11989210
Pd      -0.00202334       1.03155157       8.64650042
Pd       2.23749015       3.28308262       8.63392243
Pd       2.23693362       3.28198482       3.29463390
11
Lattice="4.326581001281738 0.0 -0.0075582703575491905 -2.1745480861979445 4.519776549508342 -1.4165802001953125 0.0 0.0 6.067477226257324" Properties=species:S:1:pos:R:3 pbc="T T T"
Mg       0.23208996       0.27615068       4.49073803
Mg       0.23069431       3.21187318       1.60906804
N        2.40352779       0.34702039       1.62492811
Mg       2.39745227       1.74311531       0.02028195
N        2.39781825       0.30598880       4.45441516
Ir       2.40036017       1.81484257       3.10380513
Ir       0.23395653       0.15966452       1.43561339
N        0.23048105       1.68860336       0.10349911
Mg       0.22576992       3.30312424       4.64347766
N        2.39125868       3.27318101       1.59076115
N        2.38893775       3.25065138       4.58370223
8
Lattice="4.185785293579102 0.0 -1.051670789718628 0.006306238519819779 8.406040687193553 0.037088800221681595 0.0 0.0 8.891227722167969" Properties=species:S:1:pos:R:3 pbc="T T T"
Rb       2.69441788       5.21819464       3.89080387
Rb       3.76131839       1.00068481      -0.74294484
Ga       0.72328542       1.01746217       4.89873268
Te       1.13733530       7.30707161       6.56200470
Ga       1.54680080       5.21101726       8.20058819
Te       4.01111484       5.20208824       0.27151715
Te       1.13480568       3.10923427       6.55015601
Te       2.44297139       1.01926021       2.87813313
8
Lattice="5.662950038909912 0.0 0.004500486887991428 0.0009581823561371284 6.316427634995483 0.001997371669858694 0.0 0.0 7.277074337005615" Properties=species:S:1:pos:R:3 pbc="T T T"
Tb       0.76540539       0.24845182       5.47597737
Tb       3.59750633       5.52272076       3.66099670
Tb       0.76573728       3.42256629       3.65611705
Tb       0.76626174       3.42322929       0.01993172
Tb       3.59680404       2.38171642       1.84185137
Tb       3.59600431       5.52289809       0.02210633
Y        0.76509478       0.27077377       1.83650296
Y        3.59763832       2.35871523       5.48060163
10
Lattice="3.3365724086761475 0.0 0.0013450462138280272 -0.002533431271939186 8.465313532345482 -0.009745677933096886 0.0 0.0 8.470552444458008" Properties=species:S:1:pos:R:3 pbc="T T T"
Li       2.68367566       5.16593131       5.86898101
Li       2.68290902       7.09165611       7.79513659
Sb       1.01497671       7.63626994       5.31973423
Sb       1.01791604       0.38606372       1.08927584
Li       2.68612136       2.86022747       1.63221117
Sr       2.68151807       6.13080115       2.59391156
Li       2.68598116       0.93108836       3.56655132
Sr       2.68710623       1.90051284       6.83639826
Sb       1.01499977       4.62133312       8.33907748
Sb       1.01589228       3.40236436       4.10524368
8
Lattice="5.359269142150879 0.0 3.477247953414917 2.2737254882207893 4.852902792966967 2.3703927993774414 0.0 0.0 5.848748683929443" Properties=species:S:1:pos:R:3 pbc="T T T"
K        6.42984436       3.45852242       7.38019529
K        2.61467656       1.03231038       7.37848593
O        3.61730388       3.67046603       8.25978373
K        4.52698200       2.24944392       4.45805980
O        5.42873771       0.82007665       6.50244243
O        2.28229184       0.82392136       4.45667738
Os       2.98384659       4.67015692       6.82514257
O        6.76562568       3.67275578      10.30152151
11
Lattice="7.898176193237305 0.0 -1.2344955205917358 -4.248348410927065 6.664769744758045 -1.2603797912597656 0.0 0.0 8.742057800292969" Properties=species:S:1:pos:R:3 pbc="T T T"
Ba      -3.30830400       5.45796420      -0.39152408
Rh       1.98931398       0.35894045       7.13735076
Ba      -0.98284572       4.44628806       4.61629817
Br      -0.06609498       1.48009185       2.76959375
Rh       1.82483324       4.77608802       5.89193360
Hg      -0.22488346       5.90250819       1.51586109
Ba       0.96440012       3.03547553      -0.38234062
Ba       4.84217824       0.66570945      -0.33420120
Ba       2.83433070       6.44713089       3.42382250
Ba       2.74744939       2.08187911       4.66879632
I        3.90815426       3.64415400       1.51856106
12
Lattice="3.619025230407715 0.0 0.0008268766687251627 0.0008343983728228024 7.439311934407823 -0.8409374952316284 0.0 0.0 9.159486770629883" Properties=species:S:1:pos:R:3 pbc="T T T"
Li       2.05663378       6.09620507       7.68591273
Li       0.24652528       0.84881680       1.57309624
Co       2.05689280       2.94548951       3.99768687
Ni       0.24543032       4.07085464       5.28545012
Zr       0.24669318       4.81230198       2.44993879
Zr       2.05585215       2.17183120       6.83518815
Se       0.24571801       1.61763166       4.68176232
Se       2.05648115       5.35851347       4.56495953
Se       0.24526865       0.55141211       8.09489130
Se       2.05525542       2.90776842       1.63283526
Se       0.24665233       4.04522599       7.67962243
Se       2.05720969       6.40747620       1.15807179
4
Lattice="3.5990192890167236 0.0 0.5452956557273865 1.7551363325485168 3.1456697951248107 0.5450344085693359 0.0 0.0 12.083648681640625" Properties=species:S:1:pos:R:3 pbc="T T T"
La       3.40028904       1.15830313      10.57617983
Nd       1.12492184       1.93322123       1.34071474
Nd       2.07620967       0.38228096       7.17886331
Tm       2.47830543       2.73193451       4.53115719
12
Lattice="4.797555446624756 0.0 -2.1215786933898926 -0.9412818196964423 4.710488501073264 -2.1222503185272217 0.0 0.0 6.490035057067871" Properties=species:S:1:pos:R:3 pbc="T T T"
Y        1.35192889       0.21057174       3.34800804
O        0.23345738       2.00331097       4.35778588
W        3.27801598       2.56643915       1.23171739
Ca       1.84301215       3.74081561      -2.01908520
O        3.74079697       3.09580145      -0.74162681
O       -0.20976670       4.19635051       3.37189941
O        1.50891961       3.09660529       0.24303575
O        4.16552279       0.96043040       0.22031846
O        2.85015781       2.01312826       3.19644041
Y       -0.08410916       1.38541244       0.10421176
O        2.40521615       4.20647356       2.21191273
O        1.93289868       0.95467144       1.20773368
5
Lattice="3.085623025894165 0.0 -0.5913516879081726 -0.11539823777785005 3.084946253735541 -0.5884137153625488 0.0 0.0 8.361310005187988" Properties=species:S:1:pos:R:3 pbc="T T T"
Ti       0.98600545       1.67873159       0.31799444
Ti       2.89460931       0.45735339       1.92900964
Ti       0.40395951       1.06924815       5.62038748
Pd       1.58997186       2.30524013       3.48247219
Zn       2.18108915       2.91722016       6.55657893
12
Lattice="6.73930549621582 0.0 -0.036012496799230576 -0.024570391456374126 5.598531689589166 -2.876591444015503 0.0 0.0 7.599102973937988" Properties=species:S:1:pos:R:3 pbc="T T T"
Rb       0.69835512       0.52492646       3.16358225
Te       4.06125944       3.21919169       1.49651831
Rb       4.06289109       1.18497302       5.07380954
O        4.06270161       1.89639769       0.13542610
O        2.09801733       2.99624640       4.41431600
Rb       0.69149330       2.51824633      -0.43431017
O        5.47876833       4.31218840       0.95584269
Te       0.67603061       4.09001962       3.86662657
O        0.67103735       5.41853639      -2.37899783
Rb       4.04455751       4.79089958      -1.80230143
O        5.99518960       3.00177912       4.38145053
O        2.64289728       4.31887239       0.94675353
15
Lattice="5.705456733703613 0.0 0.004638329613953829 -2.8512069282172665 4.940234762007919 0.00014458352234214544 0.0 0.0 7.008170127868652" Properties=species:S:1:pos:R:3 pbc="T T T"
Ba      -0.92361364       4.35095747       0.90930502
Ba       1.92975252       2.70558749       3.21137825
Ba       4.78267303       1.05708628       5.56626779
O        0.52146550       1.89222454       0.86385074
O        3.35658576       3.52634906       5.56610701
O       -0.92432560       2.72695917       3.25363701
Rh       4.78190711       1.05879283       2.06021528
Ti       1.92734441       2.70538313       6.70971636
O        3.33722811       0.22440250       3.25636829
O        3.34042550       1.89051946       0.86776480
O        1.93085494       1.05732950       5.56471767
O        0.51831852       0.22526558       3.25231824
Ti      -0.92130878       4.35045483       4.41546265
O        1.93078549       4.33103807       0.86580092
O        0.50441679       3.52794710       5.56254387
12
Lattice="4.759137153625488 0.0 1.4596729278564453 2.1744284928807933 4.235036853786514 1.4584006071090698 0.0 0.0 8.640305519104004" Properties=species:S:1:pos:R:3 pbc="T T T"
Ni       1.73357253       2.87287197       4.15159831
Ni       3.50067919       2.50071428       2.59716344
Nd       2.77898516       0.60952672       9.27681255
Ni       5.87083106       3.94783023       7.68857378
Ni       5.87455194       2.50145970       3.32549428
Ni       4.79194046       0.38404843       2.59723260
Ni       4.16697856       1.45448243       4.66743768
Ni       1.86549944       0.04904571       3.67713069
Ni       5.32836870       2.16465428       9.46174639
Nd       3.12091662       3.72453986       8.18279629
Ni       4.78278103       1.83296684       6.95799674
Ni       2.40053302       1.82996812       6.22933606
5
Lattice="4.492154598236084 0.0 -1.7154346704483032 -0.6550684764559022 4.443018971341053 -1.7128993272781372 0.0 0.0 6.754075050354004" Properties=species:S:1:pos:R:3 pbc="T T T"
Ba       2.39290910       2.28171947      -0.64038288
Li       1.10276589       3.39210028       2.73571038
Sn       0.95427579       0.61505426       2.33484725
Sn       3.82958105       3.94678831       3.13461304
Au       3.67900314       1.16998435       2.73544427
9
Lattice="4.274089336395264 0.0 -0.004363641608506441 -2.135274949230564 4.805367479600246 -0.4106523394584656 0.0 0.0 8.729165077209473" Properties=species:S:1:pos:R:3 pbc="T T T"
Tm       2.51219174       2.70126659       0.55622364
Ga       2.51287629       3.13121986       4.01390142
Tm       2.51195303       0.28082009       2.71491489
Ga       0.37581687       4.65935917       7.57602620
Pd       2.51377197       3.52403590       6.62760324
Pd       0.37588578       4.25986605       4.96223208
Tm       0.37579488       1.49009127       6.00300433
Pd       0.37612359       2.28961470       2.75292243
Pd       0.37371813       0.69471746       0.52352794
12
Lattice="5.594579219818115 0.0 -0.9864264726638794 -1.4992604430310055 4.661225255340463 -2.780484199523926 0.0 0.0 5.622699737548828" Properties=species:S:1:pos:R:3 pbc="T T T"
Li       4.62690233       2.79540446      -1.37183699
Na       2.10173044       1.96855536       0.60386229
Sc       1.59802727       3.53007989      -2.21046212
O        0.04120352       4.48730131      -1.12005661
O        3.74931572       0.62730173      -0.44971701
Na       4.14098696       4.31170926       1.50187075
O        1.00011080       1.64282904       4.14349605
Sc       2.60113606       0.40995045       3.41458400
Na       5.12761145       1.24771645       1.41022083
O        3.23069860       2.33194427       2.74888575
O        0.44062621       3.32254649       1.62143349
O        2.64333759       4.03274726      -0.44307942
4
Lattice="4.18364143371582 0.0 2.4109392166137695 1.3951200333538758 3.9448405167349425 2.4123167991638184 0.0 0.0 4.8284993171691895" Properties=species:S:1:pos:R:3 pbc="T T T"
Li       1.39894343       0.96219052       4.97309128
Sm       1.39820724       3.91838336       4.97127299
Sn       2.79363710       1.94868921       2.55709115
Li       4.18851060       2.93502231       4.97028668
10
Lattice="5.581360816955566 0.0 -0.007720305118709803 -0.012086509267776623 7.482682957059876 -0.013802358880639076 0.0 0.0 7.486628532409668" Properties=species:S:1:pos:R:3 pbc="T T T"
Sb       3.17545219       3.89721673       4.36849783
Tl       0.39122655       0.42506303       0.89763111
Tl       0.38737334       4.16699259       2.06242700
Tl       0.39244116       1.59517356       4.63802189
Tl       0.38716076       5.33531440       5.80647930
Cd       3.17865375       2.88026644       7.09257001
Sb       3.18241677       0.16195952       6.07888248
Sb       3.17777755       1.85517761       2.33271800
Cd       3.17348591       6.62377906       3.34370479
Sb       3.17360246       5.59722277       0.62745941
12
Lattice="6.028195381164551 0.0 -1.1423174142837524 -2.296280622730393 7.258914047086855 -3.6193485260009766 0.0 0.0 8.429917335510254" Properties=species:S:1:pos:R:3 pbc="T T T"
Pr      -0.66161762       6.88007085      -2.65905744
Pr       4.90985461       0.35695587       2.43699292
Pr       1.54256206       5.34265896       1.51113930
Pr       4.24918778       0.87898176       6.71771217
Pr      -1.06968358       4.08507316       4.17306430
Zn       0.08482803       2.47786766       1.53345860
Zn       3.09413307       2.49122338       0.93204782
Pr       4.30025192       4.60981879      -1.11941521
Pr       1.04631288       3.04107828      -1.44956584
Pr       2.13328074       1.92721384       3.90935695
Sn      -1.33384364       6.96575712       2.50454716
Sn       2.21698890       5.26282405       4.76585569
7
Lattice="3.8953616619110107 0.0 0.9462419748306274 1.5046855407886428 5.765529489600863 2.330435037612915 0.0 0.0 8.53296947479248" Properties=species:S:1:pos:R:3 pbc="T T T"
Tb       2.98758938       2.66963019       8.95101060
Nd       5.08472138       5.67103781       8.82340453
Nd       2.39619797       5.43388643       2.87537836
Os       4.44522470       3.42681451       2.91944249
Tb       2.23472261       1.66866750       3.53340722
Os       1.53066405       1.91542208       6.44925233
Tb       3.74278797       3.67026779       5.83343507
15
Lattice="5.873632431030273 0.0 2.93789005279541 2.1870413261396484 5.451173073314053 2.933361530303955 0.0 0.0 7.3085784912109375" Properties=species:S:1:pos:R:3 pbc="T T T"
K        5.33657598       2.88516735       6.75308670
K        2.40036959       2.88717403       5.28615408
O        7.28520137       4.02060054      10.52036554
K        1.30754834       0.16196950       3.81897516
Tm       4.24458795       0.16098376       8.94315471
Tm       5.33629751       2.88511114      10.40933330
Tm       1.30634939       0.16111926       7.47332617
O        0.72725583       1.75349978       1.65348327
O        3.08481926       1.54763430       7.58547551
Cr       2.39890183       2.88514396       8.93622504
O        4.59813087       4.37417265       4.55585083
O        1.71324441       4.22520129       2.98800782
O        3.38796560       1.74769565       2.98893659
O        4.07137996       4.01445964       8.91589932
O        6.07595254       1.39970055       8.95298507
10
Lattice="5.571340560913086 0.0 2.777249574661255 2.0707242395876615 5.199091086431518 2.7695493698120117 0.0 0.0 6.907046318054199" Properties=species:S:1:pos:R:3 pbc="T T T"
Mn       5.16163075       1.71923473       5.96338114
Mn       4.63011699       5.14015063       6.98932063
Al       3.85773390       0.82879160       8.54709319
Se       4.58375483       3.87068386       4.84104374
Al       2.10488629       3.43024405       5.08909310
Se       2.04014622       2.06287529       2.97677543
Se       2.72028474       1.28261726       6.30831566
Se       4.99947311       0.37880734       3.87807303
Se       5.19738907       2.97622642       8.11393846
Se       2.17502221       4.79678324       7.20750766
18
Lattice="4.116155624389648 0.0 -0.6058497428894043 -1.7227547880604985 8.895601505242706 2.6644134521484375 0.0 0.0 14.469895362854004" Properties=species:S:1:pos:R:3 pbc="T T T"
Cs       1.74836277       1.55688930       0.80804091
F        2.73349168       2.89719203       7.64118952
Cs       1.71761885       7.65467020      15.10333237
Cs       2.40670179       7.23886756       5.36447415
Cs       2.36067735       1.55388707       5.03544436
In       0.66654700       4.32058871       7.91925650
Cs       3.08517720       1.61865308      10.07657687
Cs      -0.67515328       4.46841832      13.09001957
F        2.30140504       4.45397515       4.61963874
Cs      -0.02609685       4.58371501       3.06672614
F        1.00042642       4.23325048      10.20543158
F        1.68602580       4.71693152      14.88141164
F       -1.30036400       8.38060440       8.82534309
F        0.00402588       7.52312336       3.27850480
F       -0.71005855       7.49932023      12.92045279
Cs       1.01881500       7.32887385      10.33237130
F       -0.02702892       1.41694113       3.05485950
F        1.33498304       1.58577816      12.47453723
5
Lattice="2.9412553310394287 0.0 0.0013315450632944703 -1.4753042134858276 2.5425761236458024 -0.0025939897168427706 0.0 0.0 11.545852661132812" Properties=species:S:1:pos:R:3 pbc="T T T"
Li       1.14761486       1.94638099       9.19092503
Al       1.14896898       0.24726844       4.70114245
Li       1.15375441       0.24840325       0.23233913
Al      -0.32324467       1.09675148       6.92231199
Al      -0.31529911       1.09554409       2.46535888
7
Lattice="4.267587184906006 0.0 -0.7892144322395325 -0.1513180697300245 4.34165175472557 -0.8173617720603943 0.0 0.0 11.904190063476562" Properties=species:S:1:pos:R:3 pbc="T T T"
Sn       3.40626540       0.64939943       1.93701392
Sn       2.86162684       2.32111621      10.91130424
Hg       0.76293516       0.10731890      11.49483445
Hg       0.26900320       1.82891608       8.83017944
Au       1.09315709       2.69937357       1.36183057
Bi       1.61372307       3.25471355       4.15630105
Bi       3.99428404       1.26191885       5.08664265
16
Lattice="9.604385375976562 0.0 1.247578501701355 -0.20673499974748272 8.931231896784464 -2.6504721641540527 0.0 0.0 11.196645736694336" Properties=species:S:1:pos:R:3 pbc="T T T"
Cs       0.19506128       0.95971724       1.92346437
I        2.06295156       7.77347605       2.00460080
Cs       3.59702176       2.37843836       7.48948009
I        1.92397021       3.44814070       4.19742194
I        9.34164363       2.41762918      10.24464090
Cs       8.86869277       5.37040192       7.04784517
I        6.58992994       6.79112399      -1.13189881
Cs       4.97508395       4.88840428       2.44514966
I        3.99726285       1.50198248       0.25475115
I        5.59445060       7.63989950       5.73328147
I        4.75902430       0.27236027       4.55660412
I        6.86353375       2.70605682       5.09972216
In       4.58121828       7.75078972       8.36428693
I        9.09657421       4.37741924       1.08343932
I        2.26736928       6.22005367       8.73507191
I        8.60627166       6.64301874       3.07220074
20
Lattice="8.943514823913574 0.0 5.477158069610596 3.3992054916232908 8.922714267620966 5.9477128982543945 0.0 0.0 10.501300811767578" Properties=species:S:1:pos:R:3 pbc="T T T"
Cl       4.16859867       8.39828273      15.32227990
Cs       3.12495163       0.37700316      11.83014186
Hg       7.59548335       0.37291823       9.31715452
Pd       9.29206769       4.83876814      17.53862138
Cs       4.83252085       4.83881069       9.54967296
Cl      10.09596678       6.00575714      15.68567805
Cl       8.47092077       3.62910868       8.84805870
Cl       2.41356998       3.80657066      12.28935914
Cs       4.82709791       4.83651316      14.80434071
Cs       9.29126093       4.83543726      12.29214776
Cl       8.27197884       1.29738289      12.53927251
Cl       7.23828260       5.87621750      17.33177108
Cl       6.34631546       6.04455664      12.16998156
Pd       7.58901661       0.37273771      14.56214115
Cl      10.31922615       8.40847216      12.04261911
Cs       3.12168762       0.37849482       6.56817751
Cl       5.39350690       1.14416316       9.38598185
Cl       5.46425015       1.25389113      14.26886894
Cl       3.30524882       3.63638924       6.91517038
Cl       4.24140370       8.51662032       9.70130455
11
Lattice="4.7368950843811035 0.0 -1.1834039688110352 -0.5833852145326438 7.442558499088119 -2.317152261734009 0.0 0.0 10.05091667175293" Properties=species:S:1:pos:R:3 pbc="T T T"
Ca       3.35985070       5.20954865       2.48240012
Ca       1.46081486       0.43566595       4.94088626
Ca       1.60072509       5.77444696       5.51637437
Li       2.48132893       5.49207832      -1.02192746
Ca       3.25684712       1.65745312       2.07102173
Ca       4.08682669       3.10636623       5.37487361
Pd       1.17343986       3.27703427       3.80076430
Ca      -0.20742073       7.17851011      -1.71604728
Ca       2.28876594       1.88895731       8.24157856
Ca       0.43444021       3.81350377       0.84387171
Pd       4.37288285       0.26669655       6.52147205
16
Lattice="4.428258419036865 0.0 8.780556527199224e-06 -2.2118034780749554 5.250460120690233 -0.005661157425493002 0.0 0.0 14.165103912353516" Properties=species:S:1:pos:R:3 pbc="T T T"
Tb      -0.31066668       0.76002843       6.37497409
Zn       1.90812807       2.87610256       6.63626903
Zn       1.90690309       2.86594101       2.36140975
Tb      -0.31206352       0.75452580       2.62812946
Tb       1.90683154       4.11007092      13.60348320
Tb       1.90641171       1.23159329      11.58551347
Ga      -0.30770320       3.91647111       7.36039332
Zn      -0.30800495       1.97281520       9.38309820
Tb       1.90906617       4.10218673       9.56263058
Zn      -0.30750276       1.97164413      13.78639413
Ga       1.90409327       0.93994998       0.42676779
Zn      -0.31077742       3.82815204       4.49981852
Ga      -0.30546863       3.38974849      11.58182374
Ga      -0.30553774       3.90884979       1.64797181
Ga       1.90576335       1.41613730       4.50031124
Ga       1.90401882       0.95123377       8.57811897
4
Lattice="3.548302412033081 0.0 0.0027107922360301018 0.007178311033433158 4.999857994776972 0.009454619139432907 0.0 0.0 5.000967502593994" Properties=species:S:1:pos:R:3 pbc="T T T"
Zn       3.52217463       1.28302596       3.54014453
Lu       1.75456667       3.78400963       3.53989573
Zn       3.52573079       3.78428023       1.04133941
Y        1.74663855       1.28420565       1.03739234
4
Lattice="3.5410308837890625 0.0 -1.5880393981933594 -0.7251293457066592 3.467478575031256 -1.6123589277267456 0.0 0.0 4.735118865966797" Properties=species:S:1:pos:R:3 pbc="T T T"
Ir       0.33190912       2.26276157       3.23422493
Rh       2.46551297       0.53099771       3.24501579
Mo       1.39933419       1.39618066       0.87203036
Rh       2.80669515       3.13158122      -0.72660376
8
Lattice="4.439489364624023 0.0 -0.0013200897956267 -2.2163294490004257 6.3442431595071085 -0.03932984173297882 0.0 0.0 9.976183891296387" Properties=species:S:1:pos:R:3 pbc="T T T"
In       2.32181367       1.23905488       6.75346766
Te       2.31505003       5.56548401       1.73459013
Te       2.31842113       2.34404590       9.36675093
In       0.09814642       4.87787174       9.13011153
Sn       0.10002331       5.50088678       3.82164500
Te       2.31665941       2.21134130       4.06321957
Te       2.32026472       5.69956639       6.57180700
Sn       0.08458596       2.13270992       1.75409450
14
Lattice="5.652032852172852 0.0 0.16891956329345703 2.7795977370201386 4.923092840148711 0.18503399193286896 0.0 0.0 11.54637622833252" Properties=species:S:1:pos:R:3 pbc="T T T"
Ca       6.91080628       2.31583948       8.39569454
Sn       6.77670880       2.23031545       1.45358790
Ca       5.10198839       4.54851770       6.07811773
Pd       5.19341432       2.99146123       3.56938374
Pd       4.07119705       0.66164429       8.32317274
Ca       3.91242480       0.55796250       2.11872577
Ca       2.35506143       2.94493468       4.47829190
Sn       5.09588376       1.24288887       5.82114760
Pd       2.64646634       1.41785038      10.72009000
Ca       3.96301929       3.88860052       0.93201975
Pd       5.38191417       1.42295446      10.82191804
Pd       1.01342984       0.47678764       3.39007232
Pd       6.81131643       3.96072172      10.89378752
Ca       3.98574092       3.91374445       9.36799587
12
Lattice="7.150139331817627 0.0 2.276517868041992 3.582650679048695 6.488346142326333 1.1472861766815186 0.0 0.0 8.303594589233398" Properties=species:S:1:pos:R:3 pbc="T T T"
Ni       5.28433092       5.58402380       4.21441934
La       3.54932587       3.58355248       5.26735952
Se       5.27882319       1.27040246       4.20719365
La       7.00930455       3.58252570       3.14947805
Ni       8.85321791       3.44395022       5.35146881
La       7.37279427       1.26763585       6.45540432
La       3.18170977       1.27440111       1.96504402
I        5.27805738       3.35305460       8.36188506
La       7.13056667       5.44811023       6.40362454
I        8.85899858       5.67948909       9.50422686
La       3.43528022       5.44493629       2.01689075
I        1.70120779       1.26904840       7.21999978
12
Lattice="4.602390766143799 0.0 0.0016660421388223767 -2.3023092581404114 7.972648867106161 -0.009238958358764648 0.0 0.0 12.073512077331543" Properties=species:S:1:pos:R:3 pbc="T T T"
Te      -0.86658593       3.04513202       2.62966055
Nd       1.43480755       5.16270007       3.31790779
Te       1.43438919       6.42038314       0.29926498
K        3.73683428       1.07465238       6.34249709
Te      -0.86434906       3.04112032      10.04569180
K        1.43471542       1.27809962       0.30613266
Cd      -0.86620419       4.64492366       0.29943116
Te      -0.86539800       7.28174745       8.65592287
Te       1.43493505       3.90354387       6.33637489
Cd      -0.86605150       5.68000746       6.33770619
Te      -0.86731377       7.27806412       4.01219157
Nd       1.43637982       5.16278799       9.35129784
12
Lattice="5.474734306335449 0.0 -2.013507604598999 -2.7917374511059747 7.9269790803902485 0.8197631239891052 0.0 0.0 8.42749309539795" Properties=species:S:1:pos:R:3 pbc="T T T"
Na      -1.59648286       5.45654284       4.55743768
Tl       2.53682513       1.49064256       7.35501327
Na       0.46331572       3.47614063       1.71787183
Pb       2.71882757       4.87615766      -0.59340403
Na       1.81615653       7.47720382       5.35741437
Pb      -0.44794026       6.10150298       7.66577998
Tl      -0.66874744       2.84842170       7.06990987
Tl       0.67775269       6.77349303       2.28959389
Pb       1.39061684       0.90620914       4.20265365
Pb       0.27194845       0.15026923       1.21966889
Pb       1.62826299       4.10094245       4.86594589
Pb       3.68725827       2.11385742       2.02466364
8
Lattice="5.2385993003845215 0.0 0.00328708509914577 0.002585513494089692 5.891725926524631 -3.402322769165039 0.0 0.0 6.801459312438965" Properties=species:S:1:pos:R:3 pbc="T T T"
Li       3.83371035       0.68717216       0.85720774
Ca       1.21711570       1.78119960       2.74497278
Li       3.83449637       3.96325580       2.74618138
Li       1.21581009       1.55964939      -0.65329632
Ca       3.83602728       3.74332697      -0.65414522
Li       1.21539143       4.83387080       1.23444724
Li       3.83422908       0.68096814       4.64746935
Li       1.21701346       4.84168723      -2.55349871
10
Lattice="4.184119701385498 0.0 -0.00028648602892644703 0.002543068539766127 7.4358525695896684 -0.14598897099494934 0.0 0.0 7.4336934089660645" Properties=species:S:1:pos:R:3 pbc="T T T"
Ce       2.40983705       3.08291389       6.42145291
Si       0.31987884       4.64210439       0.44038937
Ce       2.40931986       0.42435578       3.81232764
Dy       0.31976356       5.42500090       4.92996428
Dy       0.31942277       1.86599070       1.44485384
Si       0.31716339       0.87690036       6.00569133
Si       2.41372833       4.17091488       2.65695303
Si       0.31726602       2.58500428       4.27168847
Ce       2.41197883       6.78587869      -0.01677613
Si       0.32072740       6.37972779       2.13564233
10
Lattice="4.587493419647217 0.0 -0.005823294632136822 -0.0025156769964481953 7.834475113376676 -0.0009137379820458591 0.0 0.0 7.831375598907471" Properties=species:S:1:pos:R:3 pbc="T T T"
La       3.30298524       5.37424064       7.02163538
La       3.30234264       2.67489922       4.32382754
La       3.30307644       1.45837341       0.40483750
La       3.29993703       6.59010452       3.10847684
Ga       1.00703687       1.04866230       2.70322237
Ga       1.00804940       4.96686579       4.73228776
Ga       1.00940886       3.07896605       6.62131505
Er       1.00822765       4.02365840       1.76028806
Ga       1.00600425       6.99648519       0.81779612
Er       1.01052390       0.10715053       5.67756596
9
Lattice="4.714017868041992 0.0 -0.0006161084165796638 -0.0031741319264990144 6.615123464095301 -3.8439364433288574 0.0 0.0 7.623147010803223" Properties=species:S:1:pos:R:3 pbc="T T T"
Ge       0.88103857       4.10771246       0.14142361
Sr       3.23996414       3.01542186       5.13901852
Sr       3.23835179       2.07167843       1.32595087
Cd       0.87992114       5.85648736      -2.76179101
Cd       0.88329714       0.88687892       3.91027585
Ge       0.88414483       1.48128015      -0.83230958
Ge       0.88259236       3.64733268       2.91358485
Sr       3.23795795       5.84259960       2.39633789
Cd       3.23770767       5.79034959      -0.82951372
8
Lattice="4.769131183624268 0.0 -0.009804432280361652 -0.0014875790564407292 4.768794781409845 -0.00701531395316124 0.0 0.0 4.77383279800415" Properties=species:S:1:pos:R:3 pbc="T T T"
Er       1.56825225       2.65158688       0.31610304
Er       3.95243938       2.65104568       2.69707093
Er       3.95322562       0.26540384       0.31465119
N        3.95291789       2.64980098       0.31026888
N        1.56841127       0.26733804       0.31972880
N        3.95424866       0.26457133       2.70242727
Zr       1.56852084       0.26693114       2.70635470
N        1.56817432       2.65172871       2.70322038
4
Lattice="4.024638652801514 0.0 0.001967858523130417 0.0001349639059897691 4.616936681682129 -0.001784539665095508 0.0 0.0 4.617520332336426" Properties=species:S:1:pos:R:3 pbc="T T T"
Sc       3.16795209       3.16384082       4.57724124
Dy       3.16666140       0.85477587       2.26968425
Al       1.15626969       0.85479953       4.57719528
Al       1.15634619       3.16404336       2.26818121
14
Lattice="7.343166828155518 0.0 -1.3577574491500854 -2.026323982384156 7.215957967834413 -2.399062395095825 0.0 0.0 7.989762306213379" Properties=species:S:1:pos:R:3 pbc="T T T"
La       0.75964904       0.47019751       3.29037166
La       3.98370839       4.98508965      -2.51542702
La       5.34288625       1.85117756      -0.41421395
Os       2.39459554       3.48506799       3.44581287
La       1.51911286       2.92364534       0.83169682
Os      -0.57972155       3.03082354       3.09418947
La       4.53244636       4.89203394       1.50099184
Tl       1.54093669       6.29481324      -0.60495186
Tl       2.59982148       1.84276428       5.86814249
La      -0.02368055       3.90490944       5.76144060
La       0.99288751       5.78913194       2.90397487
La       4.69111537       1.69527518       3.33259956
Os      -0.87586968       4.72999331       0.48695757
Tl       0.14450738       0.18915435       7.05640016
18
Lattice="4.889260768890381 0.0 0.002313682110980153 -2.4470571580497884 9.868313777128686 0.27461138367652893 0.0 0.0 14.356138229370117" Properties=species:S:1:pos:R:3 pbc="T T T"
In       1.44861982       7.93299690       7.36665553
Br       3.89694800       0.33308659       2.24578614
Sn       3.89568599       2.96468722       0.72981113
In       1.45331744       1.29243130       4.44249417
Rb       1.44885943       0.57463071      10.24532921
In       1.45314991       6.46920371       3.47071116
Br       1.44770079       4.80576635       6.31685378
Sn      -0.99464522       4.15203589       7.95703494
Br      -0.99614571       7.99106080       5.12926024
In      -0.99536739       8.86030353       0.37192343
Br       3.89530359       1.34683794       7.04873572
Br       1.45237381       2.16789922      13.60422817
Br      -0.99843451       6.92467079       9.45060921
Br       1.45004643       8.85934065      12.55349994
In       1.45045909       5.79182154      11.72292728
Br       3.89653714       3.11232798      10.53259283
Br      -0.99871222       5.68165336      13.94967942
Br      -0.99390530       4.15772611       3.32173786
8
Lattice="4.874610424041748 0.0 0.000501856324262917 0.0003630904850113783 4.873998628443488 -0.0015765365678817034 0.0 0.0 8.533360481262207" Properties=species:S:1:pos:R:3 pbc="T T T"
Ba       1.51922859       1.91292411       3.91675948
In       1.51945650       4.35019534       1.18560660
Si       3.95626101       4.34915589       5.11474859
In       1.51781206       4.34924682       6.64334353
Si       3.95509333       4.34967009       2.71521522
In       3.95630287       1.91179779       1.18617625
Li       1.51853772       1.91172690       8.18316995
In       3.95593656       1.91268560       6.64574631
4
Lattice="4.3639421463012695 0.0 2.544218063354492 1.456065626051583 4.119747710874936 2.5276010036468506 0.0 0.0 5.0453314781188965" Properties=species:S:1:pos:R:3 pbc="T T T"
Y        0.96805446       0.07110246       4.96255017
Y        3.87878717       2.13162854       4.97696324
Ga       5.33415619       3.16124624       7.50518018
Pd       2.42346080       1.10136465       2.44751382
18
Lattice="4.219954967498779 0.0 -0.0018257815390825272 -2.1116883386629586 9.268977207663562 0.0010954475728794932 0.0 0.0 13.075767517089844" Properties=species:S:1:pos:R:3 pbc="T T T"
Sr       0.05354472       5.84607700       6.83648503
In       2.16470075       4.36167220       1.94223334
Sr       0.05507856       1.27335113       5.04607532
Tb       0.05603995       7.35086505       2.98665339
Sr       0.05675797       5.56143682      11.58519244
Tb       2.16406019       8.75361446       9.52025279
Se       0.05460463       4.34280687       3.51050766
In       2.16686150       2.47914877       8.48115341
Se       0.05520171       8.77498194      11.44990261
Se       2.16554226       0.84915241       2.72617901
Se       2.16548889       3.51764758       6.16669512
Sr       0.05571667       0.99474086       0.29975373
Se       0.05400558       2.49755113      10.05175707
Se       2.16553891       6.90519691       0.95507113
Se       2.16390201       3.31757655      12.70602918
Se       2.16450974       7.33191188       4.91149647
Se       2.16452383       5.98622365       9.26054358
Se       0.05390184       9.20204773       7.49118018
5
Lattice="3.3834099769592285 0.0 1.37092924118042 1.3126294970770116 4.39157387225258 1.6254140138626099 0.0 0.0 4.873579978942871" Properties=species:S:1:pos:R:3 pbc="T T T"
Mo       1.33850953       3.29684009       1.84508568
Al       1.11704976       0.17121601       2.38461486
Si       3.19648682       1.46279134       2.11471320
Si       3.73610071       3.26950991       5.65099950
Mo       2.21069898       1.43632523       4.55013962
8
Lattice="5.152789115905762 0.0 1.5458426475524902 2.347742955449974 4.586775896930889 1.548481822013855 0.0 0.0 9.383318901062012" Properties=species:S:1:pos:R:3 pbc="T T T"
Tl       5.69495006       2.54535992       5.93188493
Sm       2.87044910       0.81790556       5.98229272
Tb       4.74104092       1.96134978       9.12121367
Tb       3.34880409       4.26207396       4.39207428
Tm       6.62163251       3.11212032       2.83850936
Tl       2.39412668       3.67745361       7.58200962
Tl       1.92385446       0.23848402       9.14888938
Tl       3.81978011       1.39785575       2.81637825
4
Lattice="3.6556248664855957 0.0 2.1093814373016357 1.2203157670064682 3.446573618484875 2.1114766597747803 0.0 0.0 4.221042156219482" Properties=species:S:1:pos:R:3 pbc="T T T"
Fe       1.60489538       0.82396958       4.22669820
Li       4.04244681       2.54663547       4.22751935
Ga       1.60646661       3.40876821       4.22819803
Ga       2.82321718       1.68507269       6.33810083
10
Lattice="5.493463516235352 0.0 -0.008281756192445755 0.0012046884045001736 5.296435219135333 -2.9548826217651367 0.0 0.0 6.080928325653076" Properties=species:S:1:pos:R:3 pbc="T T T"
Cu       5.47045394       4.01500862      -1.90659841
Nd       2.72803620       4.76666593       2.89578898
Nd       5.47121273       2.35568117       0.91442900
Cu       4.09769011       5.11723415      -0.21676136
Pt       5.46978839       0.00346630       4.92620500
Cu       4.09829854       2.00078433       4.02963098
Cu       1.35030405       2.00126481       4.03304466
Cu       1.35249117       5.11834855      -0.21131119
Pt       2.72229795       1.82231488       1.84344110
Cu       2.72227479       3.10537171      -0.36296914
7
Lattice="6.161501407623291 0.0 -1.0575791597366333 -1.2106317265450457 6.064052750271317 -1.0287543535232544 0.0 0.0 6.29817008972168" Properties=species:S:1:pos:R:3 pbc="T T T"
Dy       0.82857465       0.57392821       1.32803890
Dy       4.19294600       1.45363407       2.35635938
Y        4.71997562       3.18374104      -0.77280608
Dy      -0.91535456       4.91709696       3.45286743
La       1.35382211       2.30816068       4.47224278
Y        2.45688792       5.79868437       4.49143918
La       1.90937486       4.04743256       1.33823517
12
Lattice="5.632634162902832 0.0 0.022139323875308037 -2.8123056710474827 4.856365085433525 -0.05322868004441261 0.0 0.0 8.969252586364746" Properties=species:S:1:pos:R:3 pbc="T T T"
Er       1.56257825       1.68238261       5.25229343
Al       1.56771342       0.07270380       2.44205679
Er       4.38074381       0.07549829       0.78033764
Al       4.36033977       1.68102200       6.93181915
Al       0.16478297       4.15094495       6.88580852
Ag       0.18098535       2.45401673       2.47520811
Ag      -1.21631396       3.32881030       0.12757155
Er       4.36233475       0.07191876       4.13658689
Al      -1.25890559       3.31140003       4.65800773
Ag       2.95913963       2.45393192       2.47510219
Er       1.56942443       1.69330604       8.60383115
Ag       2.90062702       4.16584095       6.85097042
12
Lattice="6.812381267547607 0.0 -2.9739670753479004 -3.4027221096311 6.1830926673476005 -2.2298202514648438 0.0 0.0 7.444705486297607" Properties=species:S:1:pos:R:3 pbc="T T T"
Cs       4.50887966       0.22745538       4.92657683
O        1.40881669       4.35659921       0.41321318
W        1.09872485       3.32277488      -1.02995964
Cs       4.50924991       3.31815338       1.19982405
W        1.10446452       0.23100982       2.68726971
O        0.79218454       4.35045452      -2.47099692
O       -1.99481626       5.38476864       1.90233491
O       -0.34819055       2.28931301      -0.74009934
O       -2.60577326       5.37395233      -0.98239564
O       -0.34495452       1.26126731       2.98331592
O        2.55230275       1.26017846       2.39889680
O        2.54647769       2.29395515      -1.32511014
12
Lattice="5.272121429443359 0.0 0.004582060966640711 0.030281308199706355 7.769802213753234 -2.5432777404785156 0.0 0.0 10.429059028625488" Properties=species:S:1:pos:R:3 pbc="T T T"
Pr       2.00871876       4.32436374       7.69867655
La       4.63333611       1.74440524       7.67334687
Pr       4.64337336       4.29734137      -0.12200229
Pr       4.64449194       4.32738511       5.04557239
Nd       2.00845369       4.29605993       2.44670611
La       2.01928655       6.96363900      -0.14727449
Nd       4.65340169       6.95014796       7.71304793
Pr       4.65469370       6.93374160       2.46105245
Pr       1.99763362       1.75391764       5.02466721
Pr       2.01751626       6.93428900       5.09798225
Ho       1.99713525       1.74590087      -0.12997127
Ho       4.63474173       1.75481076       2.41061637
20
Lattice="3.2348034381866455 0.0 0.0007942329975776374 0.004730580911634001 8.45367585383965 -0.002198287518694997 0.0 0.0 8.45639705657959" Properties=species:S:1:pos:R:3 pbc="T T T"
Ti       1.92196595       0.14564489       2.84322291
Be       1.92410406       4.81653079       7.51440882
Fe       0.30363254       1.03423846       6.74378980
Ti       1.92322872       3.08653830       5.77931456
Be       1.92357937       2.64125673       3.28867207
Be       1.92173631       0.59116028       5.33930952
Fe       0.30635036       5.26276646       6.10668388
Be       1.92469818       6.86882528       1.11256226
Fe       0.30620298       3.41180714       7.95547554
Fe       0.30742172       8.27247415       0.66594449
Fe       0.30571358       1.61688616       4.31271318
Ti       1.92340018       4.36906716       1.55348165
Fe       0.30788173       6.42422419       2.51906807
Ti       1.92471330       7.31518490       7.06918403
Al       1.92139300       1.61221672       0.08614832
Al       1.92398178       5.84530122       4.31147256
Fe       0.30631151       5.84492684       0.08368541
Fe       0.30528018       2.19768607       1.87848768
Fe       0.30643232       4.05107483       3.73042557
Fe       0.30846624       7.63775623       4.89604962
8
Lattice="5.693851470947266 0.0 1.298933506011963 1.3930868408594956 5.629003774733379 -0.0672420933842659 0.0 0.0 5.785060405731201" Properties=species:S:1:pos:R:3 pbc="T T T"
As       4.15797701       5.03955197       6.10683405
As       0.49838825       0.29832602       0.10358135
As       0.62449707       0.23805352       3.39667332
As       1.08966812       2.68333205       3.39540836
Yb       5.10116593       4.99218097       3.19440716
As       1.01864747       2.75917265       0.12717191
As       3.47542476       2.68838658       0.61209109
As       3.51389407       2.41007222       3.06204274
20
Lattice="6.748341083526611 0.0 -1.940801978111267 -3.551334425019064 5.738795086611108 -1.698098063468933 0.0 0.0 7.968443870544434" Properties=species:S:1:pos:R:3 pbc="T T T"
Cu      -1.14202434       4.68714715       2.71466949
Cu       3.50465351       3.19036709       1.85774308
Sb       0.88864562       4.08040557      -1.66313261
Cu       1.94537876       1.34936450       0.32819691
Pd      -0.78276282       2.77867858       4.63403865
Pd      -1.22406588       4.61679796      -0.15286210
Pd       1.88627741       1.34987690       2.88246600
Cu      -0.64443732       2.28592109       2.06686308
Sb       4.60556381       0.47844553       3.84864800
Pd       3.62058597       3.15075120      -0.67794399
Pd       1.61379935       1.71601617       5.59985216
Pd       3.84191803       2.84941737       4.54611929
Pd      -0.50442317       1.81716280      -0.52337037
Pd      -2.41570733       5.14465598       5.18206559
Pd       1.59439021       4.04955323       3.62613329
Pd       4.33149508       0.80426440       1.25159960
Pd       2.99838039       5.55859438      -2.22384474
Pd       3.82443084       0.47487371       6.48503267
Pd       1.13781091       3.75830141       0.93198723
Pd       3.17770142       5.64621139       0.65706608
9
Lattice="4.428831577301025 0.0 0.0014479949604719877 -0.0015657446700976466 7.157452888891154 -4.137823104858398 0.0 0.0 8.282998085021973" Properties=species:S:1:pos:R:3 pbc="T T T"
Yb       0.58604932       3.92825411       5.42882343
Yb       2.80046383       5.75955937      -0.52549615
Yb       2.79941096       2.10013269      -0.52747837
Yb       2.79900534       3.93261542       2.64679710
Ag       2.79880814       6.31348799      -3.60802791
Yb       0.58512808       1.00623908       2.21628585
Ag       0.58585728       3.93246013       0.53022518
Yb       0.58690547       6.85546491       2.22731781
Ag       2.79946436       1.54345763       4.67936444
6
Lattice="4.759908199310303 0.0 0.008328468538820744 0.009525501617885304 4.761936674203827 0.00051750527927652 0.0 0.0 6.749241352081299" Properties=species:S:1:pos:R:3 pbc="T T T"
Y        0.54431142       3.43494333       6.41538469
Ho       2.91626274       1.05358486       3.05046998
Y        0.54226619       3.43514939       3.04584032
Ho       2.91462440       1.05491207       6.42970979
Ru       2.92265266       3.43757049       4.73783667
Ru       0.53857161       1.05424840       1.35969620
12
Lattice="5.0790181159973145 0.0 0.001593364984728396 -2.5398022826369697 4.3894962097742205 -0.00593870272859931 0.0 0.0 8.161248207092285" Properties=species:S:1:pos:R:3 pbc="T T T"
Tb      -1.39345960       3.37577974       7.33543710
Mg       1.14499895       1.90959478       3.31689294
Cu       3.68631101       0.44896237       7.87249648
Mg      -1.39354132       3.37384496       4.12865053
Mg       1.14792028       1.91131934       0.35682203
Cu       3.68764020       1.92141777       1.76407702
Cu       3.68614914       0.44918247       3.80432125
Cu       2.42521746       4.10165315       1.76425087
Cu       2.39825746       1.19042549       5.78484464
Cu      -0.12924714       4.10056920       1.76278481
Cu      -0.10221366       1.19419119       5.78471202
Cu       1.14426036       3.35060947       5.78098290
10
Lattice="5.516584873199463 0.0 -0.0023203534074127674 -0.0031384145502785688 7.522892774157677 -0.011096427217125893 0.0 0.0 7.515182971954346" Properties=species:S:1:pos:R:3 pbc="T T T"
Sr       3.35969381       0.10776483       6.82795432
In       0.60177917       2.37509446       1.57747416
Sr       0.60227589       2.37527203       5.33463705
Sr       3.35852768       3.86381372       0.08262241
Sr       3.35713049       4.64504601       3.83790224
Sr       3.36080943       0.88660244       3.07017336
In       0.59812483       6.13555594       5.33110468
Sr       0.60010921       6.13754145       1.57245834
H        3.35608962       6.13827638       1.56878298
H        3.35960352       2.37581437       5.33220568
8
Lattice="5.091423511505127 0.0 0.0020664252806454897 0.0016431115673958725 5.094016286972719 0.0012385756708681583 0.0 0.0 10.089574813842773" Properties=species:S:1:pos:R:3 pbc="T T T"
Nd       0.92593664       0.50276439       2.79007074
Nd       0.92432719       0.50330166       7.77260550
Tm       0.92723425       3.04900382       0.23648087
Mg       3.47176768       0.50307731       5.28164870
Nd       3.47194306       3.04792564       2.78774862
Sm       0.92822871       3.04732051       5.28380197
Nd       3.47098171       3.04903722       7.77715942
Sm       3.47198656       0.50424662       0.24042890
12
Lattice="6.907443523406982 0.0 1.1650543212890625 1.754645895728288 5.766379854568447 3.474337100982666 0.0 0.0 6.9611496925354" Properties=species:S:1:pos:R:3 pbc="T T T"
Y        1.84907682       1.02336226       6.92419852
Se       7.11226520       1.54298890       3.45538521
Y        3.02752833       4.88562608       6.88724786
Sc       5.60380265       2.00157002       5.73223669
Se       7.70699169       3.42554986       6.87157953
Tm       6.18765558       3.92775119       9.20590498
Se       8.29285271       5.42193409      10.35160267
Y        2.44656240       2.97957697       3.37487535
Se       4.66463998       4.34786489       4.58910145
Tm       5.01668526       0.07705590       2.25759898
Se       3.50019339       0.58098004       4.59233679
Se       4.09215787       2.46101074       8.00896114
12
Lattice="6.770997524261475 0.0 2.361224889755249 3.391481825136223 6.204687560100923 1.1896408796310425 0.0 0.0 7.344882488250732" Properties=species:S:1:pos:R:3 pbc="T T T"
Ca       5.64435492       4.92741561       5.37193067
Na       2.25231786       0.74986019       7.85682425
Na       5.63990635       2.85968341       9.04176010
Ca       5.63832649       0.79219974       5.36513920
Hf       2.25585259       2.86064108       4.18810247
Se       0.68866332       0.94849487       5.32258671
Na       9.02604632       4.97140261      10.22675942
Se       3.82169464       2.85894006       6.39667734
Se       3.81825194       4.77358483       3.05460295
Se       7.45768793       2.86062000       4.34009740
Se       7.46285967       4.77479750       7.68840300
Se       3.81827589       0.94545959       3.04996273
16
Lattice="6.313007831573486 0.0 0.0009667754056863487 0.003215284080731515 6.323399679992461 -0.008620076812803745 0.0 0.0 6.310998916625977" Properties=species:S:1:pos:R:3 pbc="T T T"
Mo       0.02877299       3.52311345       5.08275049
Ir       1.60886224       5.10044874       3.50231786
Mo       1.59920176       1.93658303       0.34653543
Mo       3.18312202       0.36134848       1.93100474
Mo       1.60160794       5.11024938       0.34316966
Mo       3.18123714       0.36268658       5.08670146
Mo       4.76939862       1.93611378       3.51183737
Mo       0.02631584       0.36147448       1.93082828
Mo       0.02949961       3.52214971       1.92711102
Mo       1.59917752       1.93775520       3.51186875
Mo       3.18384758       3.52069448       5.08406001
Ir       4.76369370       1.94043178       0.34962883
Mo       4.76687786       5.10855746       3.51031109
Ir       3.18438581       3.52171175       1.92684186
Mo       0.02962996       0.35930839       5.08440504
Mo       4.76902603       5.10922194       0.33968972
9
Lattice="4.563540935516357 0.0 1.4634194374084473 2.305992561122792 7.551654683282938 0.7326731085777283 0.0 0.0 7.938929557800293" Properties=species:S:1:pos:R:3 pbc="T T T"
Ag       5.08284443       2.99656328       5.95683643
Pb       3.52841843       2.99887889       2.93633092
Pb       1.26140830       0.53107221       2.14817573
Pb       4.33278623       0.53489025       8.30655972
Pb       4.34020463       5.46561087       8.31137632
Pb       5.83994045       5.46774846       3.60049796
Pb       2.81137720       5.40104521       5.22339527
Pb       2.07700389       2.99772953       7.51591767
Pb       2.79417809       0.59639063       5.22653585
12
Lattice="6.791683673858643 0.0 -0.03741861879825592 -0.052684350577192444 6.899564825177679 -4.128174781799316 0.0 0.0 8.030108451843262" Properties=species:S:1:pos:R:3 pbc="T T T"
O        2.25946150       5.04650959      -1.27227545
Cs       0.65252293       2.82729686       5.51024102
Cs       0.65849594       0.36934242       1.53629977
O        4.18297081       6.68622145      -2.24865279
Cs       3.88498533       0.44834719       6.82370317
O        4.18613019       3.39164044       5.81537528
O        1.08598709       2.74796646       2.80115131
Cs       3.84371165       2.74095718       2.78818846
O        4.14563562       5.06648998       0.64215529
Cs       0.64143088       5.04698828       1.30746719
O        1.11932170       0.45746745       6.82438880
I        4.09838670       5.04629410      -1.27613694
4
Lattice="4.169216156005859 0.0 2.4011547565460205 1.391391926663971 3.930975862374388 2.40191912651062 0.0 0.0 4.811216831207275" Properties=species:S:1:pos:R:3 pbc="T T T"
Gd       3.90421808       1.77452081       5.46406655
Pd       1.12594276       2.75725903       5.46649480
Mg       2.51553293       3.73960773       3.05856484
Pd       2.51383319       0.79138924       3.06063123
10
Lattice="4.465252876281738 0.0 0.9762398600578308 2.2423065542610487 5.8194028622720895 0.4502304792404175 0.0 0.0 10.824905395507812" Properties=species:S:1:pos:R:3 pbc="T T T"
Sr       4.79027235       4.15459016       9.52457682
Au       4.78730887       0.88188131       9.52053939
Sr       3.03279672       1.56648611       6.83879764
Sr       2.01101335       1.46790301       0.72926087
Sr       5.82752882       4.09434553       4.73009925
Zn       1.29340868       0.68185847       4.06508020
Au       3.71723245       1.57181948       3.66922625
Au       2.09067226       4.94337808      11.20795847
Au       3.07721044       4.89798025       6.64596075
Au       4.08236860       3.80510165       1.97610278
7
Lattice="3.154135227203369 0.0 -0.31397053599357605 -0.03898983954118312 3.15131935243151 -0.31471481919288635 0.0 0.0 16.234668731689453" Properties=species:S:1:pos:R:3 pbc="T T T"
Zr       1.58030555       1.71364970      13.09567675
Zr       2.02816690       2.16705198       1.46224928
Zr       0.68932416       0.80964047       3.99021026
Zr       2.92051363       3.06835753      10.54493897
Zr       1.14434278       1.27160720       8.64220145
Sc       2.47280732       2.61543178       6.00068452
Tl       0.24915297       0.36601104      15.71868811
4
Lattice="3.862086057662964 0.0 -1.7235254049301147 -0.7679503758941842 3.7843647087190972 -1.7219712734222412 0.0 0.0 5.191512107849121" Properties=species:S:1:pos:R:3 pbc="T T T"
Ag       0.95067418       1.82265635       0.10556718
Se       2.49603737       3.71327564      -1.61781696
Ag       2.10582437       0.87518950       2.69497399
Ag      -0.20846392       2.76651273       2.69567217
20
Lattice="6.311788558959961 0.0 -2.1204447746276855 -2.0736537143510243 6.48987506951836 -1.005034327507019 0.0 0.0 7.82660436630249" Properties=species:S:1:pos:R:3 pbc="T T T"
Zn       1.19709622       5.06976579       0.20727824
Cd       3.11750713       5.37286772       2.57419942
Cd       0.93153620       2.13723375       3.95390325
Zn       1.84248712       0.49939414       6.91455062
Pt      -0.53742127       4.45637702       4.33778988
Pt       2.91966337       0.21001677       4.39879283
B        4.26237714       2.53659267      -0.33884752
Cd       4.24961996       2.31345749       3.12382930
Pt      -1.51794128       4.82299434       6.90093090
B       -0.27594982       5.22709324       2.36610437
Pt       3.15563142       2.64828501       5.72592649
Pt       4.71642130       0.79954583       0.77241319
B        3.69149516       6.08619433      -1.69432770
Pt       2.48730675       2.51909340       0.79631203
Pt       5.43273480       0.99636510       5.62244136
Pt      -0.04897343       3.25386317       1.59803052
Pt       1.42256536       0.29583984       1.94852065
Pt       1.89170353       5.16879265       5.48350692
Pt       0.52422274       2.95260506       6.59792667
Pt       3.92293595       4.76255228      -0.05603211
8
Lattice="4.838273048400879 0.0 -2.134237051010132 -0.9705922412358207 4.804973874684704 -2.198946237564087 0.0 0.0 6.587312698364258" Properties=species:S:1:pos:R:3 pbc="T T T"
Cu       0.17942366       3.51276271       0.55195034
Si       3.12539234       1.16807599       0.68241482
P        1.22317664       1.77316977      -0.35863267
Cu       1.77165836       2.48773697       4.18746280
Ge       2.62548713       0.59946970       2.95714215
Si       4.63254744       0.03234359       4.12067854
Ge      -0.19508539       3.00509485       2.88307532
P        3.14320846       4.23881594      -2.56026494
8
Lattice="5.354334831237793 0.0 0.006972411181777716 0.03572478577205038 6.698383433114842 0.054096680134534836 0.0 0.0 6.912900924682617" Properties=species:S:1:pos:R:3 pbc="T T T"
Tl       2.26759357       1.79075823       0.27926468
Tl       2.26968580       1.79217998       3.75621849
Tl       4.95158742       3.18509501       2.02398170
Tl       2.28651167       5.06404084       5.50773314
Tl       4.96977375       6.45739366       0.33622971
In       4.95443452       3.07948275       5.48755152
Tl       4.97083093       6.45503446       3.77893464
In       2.28385771       5.16191415       2.04548848
20
Lattice="3.1135478019714355 0.0 0.0002366664120927453 -0.017736971907107813 9.516812008348356 -0.0015535388374701142 0.0 0.0 9.516664505004883" Properties=species:S:1:pos:R:3 pbc="T T T"
Ga       1.74777846       2.26992515       5.11274816
B        1.74962460       1.09396734       8.69306069
Er       1.74466042       3.94202017       8.19826825
Ru       0.17756804       9.09657504       9.21361294
Ru       0.18334692       6.36997344       7.80083374
Er       1.74294539       5.35641510       3.43852760
Ru       0.19571191       0.19871795       4.45542441
Ga       1.73873563       7.02658418       0.35416063
Ru       0.18729761       4.34345151       5.76908306
B        1.74593704       3.44574498       1.53437588
B        1.74090492       5.85159664       6.29087145
Er       1.75088557       0.59343840       2.02664027
Ru       0.19215804       1.61237889       7.18282129
Ru       0.19073062       2.26941363       0.35697787
Ru       0.18710528       4.95855712       1.01093636
Er       1.73503274       8.70270707       6.78366940
Ru       0.18248123       7.02859620       5.11308678
Ru       0.18064911       7.68374797       2.42479236
B        1.73705879       8.20530476       3.93237615
Ru       0.19000965       2.92758344       3.04457343
12
Lattice="4.489927291870117 0.0 0.0018388921162113547 0.0012094896836996958 7.546136759151009 -0.10709048807621002 0.0 0.0 14.85743236541748" Properties=species:S:1:pos:R:3 pbc="T T T"
Tl       3.26285585       5.27772493       2.76949351
Li       1.01975457       1.50329842       2.81618633
Na       1.01884945       5.25160413      10.19509605
I        1.01844840       6.56056426       0.94450607
Sn       3.26530919       1.47948389      10.23736533
I        3.26579370       3.85454510       8.39694690
I        3.26256439       6.67181628      11.98437514
I        1.01968317       3.98064496       4.57834099
I        3.26335497       0.24689596       4.50116725
I        3.26514044       2.75259617       1.15461046
I        1.01823116       0.29790453       8.42924950
I        1.01819271       2.66149429      12.04755660
12
Lattice="6.808034420013428 0.0 2.041269063949585 3.4064449603326934 6.162951038518648 1.0233408212661743 0.0 0.0 8.26400089263916" Properties=species:S:1:pos:R:3 pbc="T T T"
Pr       8.55110647       5.76886851       7.96046372
Br       6.95902230       5.76540228       4.98254518
Br       6.95870074       1.67875659       4.97885458
Pr       5.14722094       3.74985782       6.93696703
Pr       1.71283655       1.67724700       5.90268999
Ru       3.55458746       5.78635612       8.09047094
Ni       3.55226227       1.67795762       8.08996122
Pr       5.39360603       1.67872536       2.01273896
Pr       8.76915158       3.75161922       3.01815457
Pr       5.36573855       5.76952678       1.99964893
Br       3.55379983       3.75602363       3.96046684
Ru       6.95540949       3.72976650       9.11020889
11
Lattice="3.741225242614746 0.0 -0.6566044092178345 -0.7802656163138991 8.68953378627538 -4.234239101409912 0.0 0.0 11.237305641174316" Properties=species:S:1:pos:R:3 pbc="T T T"
Tl      -0.04050016       2.39229103       3.46276833
Pr       0.78180493       4.80397101       8.33427967
La       2.29295226       1.86038441       5.81682156
Pr       1.44454634       1.24966325       0.84483446
Pr       0.10137673       8.30660877       4.50644489
Pr       3.26604102       4.65541645       0.35846089
Tl       1.58209830       7.14699229       1.86364209
Tl       2.42319035       7.23152524       6.75834311
Pr       2.98866341       7.72229293      -1.15138058
La       2.02248638       4.84186377       4.35561604
Tl       2.86405824       2.33894771       9.16390658
8
Lattice="5.120190620422363 0.0 -0.004711093846708536 0.0017154793936730614 5.412991728745918 -3.1756198406219482 0.0 0.0 6.211221694946289" Properties=species:S:1:pos:R:3 pbc="T T T"
Mg       4.86369750       5.30567830       3.06771154
Mg       2.29853169       0.81828898       1.57367664
Al       4.85972771       2.60285923       1.55302240
Mg       2.29988137       0.79417579       4.67925441
Cd       4.86201010       5.30658266      -0.04030290
Mg       4.85974649       2.60239463       4.65404373
Mg       2.30130438       3.49123889       3.07121329
Mg       2.29854175       3.49245879       0.00532837
4
Lattice="4.564418315887451 0.0 2.638869047164917 1.5183802098406711 4.296640509928747 2.641465187072754 0.0 0.0 5.270995140075684" Properties=species:S:1:pos:R:3 pbc="T T T"
Tb       1.51896871       4.29508163       4.10656220
Sm       3.04176472       2.14858301       6.74463502
Tl       4.56194325       3.22036935       4.10799816
Cu       1.52094639       1.07359351       4.10423711
10
Lattice="4.1304802894592285 0.0 0.012430282309651375 0.012013913089251062 4.127020038733929 0.004457663279026747 0.0 0.0 10.181052207946777" Properties=species:S:1:pos:R:3 pbc="T T T"
Ni       1.57191196       1.70828190       1.75565062
Ni       3.64570548       3.77171296       1.76573169
Ni       1.57401979       1.70778205       6.84556523
As       1.57727116       3.77208268       2.97304952
Ce       3.63821543       1.70878999       4.30739638
Ce       1.57860308       3.77132085       9.39581822
As       1.57808032       3.77268634       5.63298012
As       3.63936348       1.70795867       0.54930408
Ni       3.64147804       3.77272422       6.85520027
As       3.63847430       1.70849407       8.06421257
12
Lattice="5.119675636291504 0.0 1.0366551876068115 2.6428735599143907 4.508605066489945 0.013198712840676308 0.0 0.0 13.107213020324707" Properties=species:S:1:pos:R:3 pbc="T T T"
Na       4.65938631       0.03644347       2.80074232
Ag       5.43967862       2.56763862      11.97497576
Na       3.20453848       0.89845416       9.92599590
Na       4.27274867       3.31823955       4.64657827
Na       3.60148622       3.71921000       7.93205176
Na       2.90552203       4.08598703      11.29694570
Ag       4.88037864       2.93105299       1.63303434
Na       2.53440614       1.28232555      13.19315620
Ag       1.35945927       2.05335119       5.94402764
Tl       1.92507774       1.66594145       3.12441635
Cu       5.95697796       2.31209884       9.46991509
Na       3.90662910       0.52468545       6.53474480
5
Lattice="4.133028984069824 0.0 0.859616219997406 1.9820830639860394 3.627652993408746 0.8603326678276062 0.0 0.0 10.419303894042969" Properties=species:S:1:pos:R:3 pbc="T T T"
Sn       2.34169181       1.38237952       8.62706695
Y        6.05914889       3.58807128      11.51213166
Y        4.73584454       2.80308794       7.47499476
Cl       3.71379670       2.19565601       2.00594694
Cl       0.96739258       0.56842830       4.86245296
8
Lattice="5.260745525360107 0.0 0.003163639921694994 -0.00516874185140242 5.570361600374279 -3.202127456665039 0.0 0.0 6.432453155517578" Properties=species:S:1:pos:R:3 pbc="T T T"
Li       0.39986879       1.49984645       3.70670740
Na       3.02715411       2.44241557       2.07468542
Mg       0.39754878       4.30012003      -1.13925019
Mg       3.02486832       5.23563788      -2.75289313
Mg       3.02570275       5.24777020       0.47325189
Mg       3.02908086       2.43374438      -1.15895513
Mg       0.39590773       4.32251474       2.07242501
Mg       0.39843985       1.51093507       0.44104805
4
Lattice="4.47902774810791 0.0 1.3510127067565918 2.0396552118609175 3.990216195888422 1.3535540103912354 0.0 0.0 8.125104904174805" Properties=species:S:1:pos:R:3 pbc="T T T"
Na       0.67293017       0.61085911       0.87256118
I        5.54356750       3.59243170       9.04723312
Ga       3.93053617       2.60522492       6.28560619
I        2.31760404       1.61854435       3.52403801
4
Lattice="3.5696208477020264 0.0 0.008759862743318081 0.001970777209731593 3.5694996638524112 0.0024563574697822332 0.0 0.0 7.188990116119385" Properties=species:S:1:pos:R:3 pbc="T T T"
La       2.99980200       0.50048817       2.79438839
Rh       1.21704787       2.28609755       4.56814577
Pr       3.00033903       0.50088481       6.38874364
Rh       1.21554724       2.28399273       1.01365137
10
Lattice="5.327491760253906 0.0 -0.8982746005058289 -2.5835497342937974 5.367849662330368 -1.0176117420196533 0.0 0.0 8.626259803771973" Properties=species:S:1:pos:R:3 pbc="T T T"
Er       0.39223518       4.30946808       3.19312333
Er       2.64411619       2.33818275       1.69512878
Er       0.16702262       0.31768841       2.93698416
Er      -0.64331877       2.07761407       5.72394768
Er       2.36541816       4.14902945       6.17061696
In      -0.40711408       1.89168992       0.31030987
In       2.15520715       0.80274835       6.93791704
Ru       1.86925476       1.92845555       4.42418790
In       0.05898407       4.62697117      -0.16642499
Ru      -2.14602455       4.49189615       4.37584041
4
Lattice="3.3918862342834473 0.0 -0.9978771805763245 -0.6225989278490908 4.694867688036214 -2.159454822540283 0.0 0.0 6.219950199127197" Properties=species:S:1:pos:R:3 pbc="T T T"
Li       3.09519979       1.48314031       3.51631473
Dy       1.08771029       3.83301083       2.93450580
Sc       2.02478027       2.54946419      -0.11275838
Sc       0.77461640       0.42283501       1.92124747
9
Lattice="3.891746759414673 0.0 0.0031466835644096136 0.00706201806524169 6.671416836445081 -3.8397908210754395 0.0 0.0 7.701181411743164" Properties=species:S:1:pos:R:3 pbc="T T T"
Tb       1.93195475       4.30452628      -1.02220719
Cd       3.87979924       5.27998644       1.53522728
Cd       3.87545592       2.06155539       5.37839968
Tb       1.92842952       0.33768222       7.49373787
Cd       3.87341618       0.33776434       2.38771999
Pd       1.92875890       0.33449540       4.38050545
Tb       1.93123834       3.03837650       2.82832342
Pd       3.87956462       4.78420281       4.39039265
Pd       3.87760308       2.55950799       0.53148333
7
Lattice="4.461350917816162 0.0 0.0005210027447901666 -6.739576630716701e-05 4.465767859904042 0.001053879619576037 0.0 0.0 7.255713939666748" Properties=species:S:1:pos:R:3 pbc="T T T"
Au       1.61736241       0.67425040       5.08023035
Au       3.84943226       2.90861349       0.84150716
Sm       1.61794948       2.90823631       2.96080127
Au       3.84982451       2.90711463       5.07995800
Ga       1.61848387       2.90621867       6.58480448
Au       3.84857222       0.67527606       2.96116233
Au       1.61788667       0.67397949       0.84001000
12
Lattice="7.240082740783691 0.0 -1.090117335319519 -3.863846625384469 6.12293980584543 -1.0878132581710815 0.0 0.0 8.20704174041748" Properties=species:S:1:pos:R:3 pbc="T T T"
Pr       4.88980951       3.03475314       0.08120076
C        5.85399461       0.78670999      -0.99297111
Pr       3.43515693       0.40083239       6.14827793
Pr       2.95448507       4.66133913       5.05598697
Pr      -0.56944713       2.26592954       6.22466695
Ge      -1.54601179       4.86578364      -0.98952079
Ge       2.14938781       2.82952362      -0.99216890
Pr       1.03226826       1.17141394       1.16880616
I       -3.33797874       5.85341568       3.11435104
Pr       1.17479478       5.43031055       0.00161770
I        3.94077939       1.84262003       3.11340243
I        0.30145026       3.84926500       3.11279856
4
Lattice="4.137986660003662 0.0 2.389024019241333 1.3804760769439213 3.901323528197914 2.3890342712402344 0.0 0.0 4.778157711029053" Properties=species:S:1:pos:R:3 pbc="T T T"
Li       2.86164329       1.88404154       3.01105643
Lu       4.24061372       2.85897641       5.40013544
In       1.48161858       0.90919067       5.40001700
Li       1.48179800       3.83515675       5.39995640
4
Lattice="3.5046262741088867 0.0 0.0005049476749263704 3.3267508342075565e-05 3.5042841432899654 -8.508041901222896e-06 0.0 0.0 6.913108825683594" Properties=species:S:1:pos:R:3 pbc="T T T"
Tm       0.71040541       1.60638133       3.94979507
Tm       0.70991331       1.60609998       0.33865518
Pt       2.46270316       3.35778744       5.60121665
Ga       2.46222376       3.35800175       2.14454659
